% University Website Quality - CSE 4112 Machine Learning Laboratory, KUET
%
% 1225 university landing pages, 71 predictive attributes.
% 60 attributes are nominal {0,1} presence flags; 11 are numeric counts, percentages, ratios or z-scores.
% Identifier columns (uni_id, name, url, country, region) are excluded on purpose so no
% model can memorise a university; index_*.csv maps instance number back to the name.
% All 22 Bangladeshi universities are in the test split and none is in train.
% There are no missing values: they were imputed during dataset construction and every
% imputed column carries a companion *_was_missing flag.
%
% Relation: website_grade_all_named
% Instances: 1225
% Target attribute: grade (nominal, worst to best: F < D < C < B < A < A+)
%
% Attribute 1 is the university name, present only so Weka can label its
% predictions. It must NOT reach the model: wrap the scheme in
%   weka.classifiers.meta.FilteredClassifier
%     -F "weka.filters.unsupervised.attribute.Remove -R 1"
% and set 'Output predictions' to also output attribute 1.

@relation website_grade_all_named

@attribute university string
@attribute a01_logo {0,1}
@attribute a02_primary_nav {0,1}
@attribute a03_nav_item_count numeric
@attribute a04_search_bar {0,1}
@attribute a05_language_toggle {0,1}
@attribute a06_breadcrumb {0,1}
@attribute a07_qs_badge {0,1}
@attribute a09_national_rank {0,1}
@attribute a11_accreditation {0,1}
@attribute a12_accred_count numeric
@attribute a13_achievements {0,1}
@attribute a14_stats_block {0,1}
@attribute a15_stat_item_count numeric
@attribute a16_notice_board {0,1}
@attribute a17_notice_timestamp {0,1}
@attribute a20_news_events {0,1}
@attribute a21_calendar_link {0,1}
@attribute a22_admission_notice {0,1}
@attribute a23_upcoming_events {0,1}
@attribute a24_event_count numeric
@attribute a25_event_images {0,1}
@attribute a26_event_captions {0,1}
@attribute a27_event_datetime {0,1}
@attribute a28_contests {0,1}
@attribute a29_video_content {0,1}
@attribute a30_image_gallery {0,1}
@attribute a31_social_feed_embed {0,1}
@attribute a32_vision_mission {0,1}
@attribute a33_about_blurb {0,1}
@attribute a34_department_links {0,1}
@attribute a35_faculty_link {0,1}
@attribute a36_research_highlight {0,1}
@attribute a37_programs_listing {0,1}
@attribute a38_scholarship {0,1}
@attribute a39_library_link {0,1}
@attribute a40_career_link {0,1}
@attribute a41_alumni_link {0,1}
@attribute a42_faq_link {0,1}
@attribute a43_contact_link {0,1}
@attribute a44_student_portal {0,1}
@attribute a45_prospectus {0,1}
@attribute a46_admissions_policy {0,1}
@attribute a47_footer_contact {0,1}
@attribute a48_footer_sitemap {0,1}
@attribute a49_copyright_line {0,1}
@attribute a50_social_links {0,1}
@attribute a51_quick_links {0,1}
@attribute a53_contrast_ratio numeric
@attribute a53_contrast_ratio_was_missing {0,1}
@attribute a54_banner_carousel {0,1}
@attribute a57_logo_prominence {0,1}
@attribute a58_live_chat {0,1}
@attribute a59_feedback_form {0,1}
@attribute a60_trust_seal {0,1}
@attribute a61_testimonials {0,1}
@attribute a63_mobile_score numeric
@attribute a65_https {0,1}
@attribute a66_broken_links numeric
@attribute a67_gzip {0,1}
@attribute a69_title_meta {0,1}
@attribute a70_favicon {0,1}
@attribute a71_sitemap_robots {0,1}
@attribute a72_alt_text_pct numeric
@attribute a72_alt_text_pct_was_missing {0,1}
@attribute a73_accessible_design {0,1}
@attribute a74_a11y_toggle {0,1}
@attribute a75_bookmark {0,1}
@attribute broken_links_log numeric
@attribute load_time_z_region numeric
@attribute notice_recency_days numeric
@attribute notice_recency_days_was_missing {0,1}
@attribute grade {F,D,C,B,A,'A+'}

@data
'Eotvos Lorand University',1,1,5,1,1,0,1,1,1,1,1,1,10,1,1,1,1,1,1,15,1,1,1,1,0,1,0,1,1,1,1,1,1,1,1,1,1,1,1,0,1,1,1,0,1,1,1,19.44,0,1,1,1,0,0,0,100,1,1,1,1,1,0,86.2,0,1,1,0,0.693147,-0.631531,5,0,'A+'
'University of New England',1,1,6,1,0,1,0,1,1,1,1,0,0,0,1,1,1,1,1,11,1,1,1,1,0,1,0,1,1,1,1,1,1,1,1,1,1,1,1,0,1,1,1,1,1,1,1,15.91,0,1,1,0,0,0,1,90,1,0,1,1,1,1,13.8,0,1,1,0,0,0.217901,1,0,'A+'
'University of Strasbourg',1,1,6,1,0,0,0,0,1,0,1,0,0,1,1,1,1,1,1,17,1,1,1,1,0,1,0,1,1,1,1,1,1,1,1,1,1,1,1,1,1,1,0,1,1,1,1,18.88,0,0,1,0,0,0,0,75,1,0,1,1,1,0,26.5,0,1,1,0,0,-1.13669,0,0,'A+'
'University of Porto',0,1,5,1,1,0,1,1,1,1,1,0,1,0,1,1,1,1,1,10,1,1,1,1,0,1,0,1,1,1,1,1,1,1,1,1,1,1,1,0,1,1,1,0,1,1,1,15.43,0,1,0,0,0,1,0,75,1,0,1,1,1,1,100,0,1,1,0,0,-0.478907,6,0,'A+'
'Nanyang Technological University',1,1,7,1,0,1,1,1,1,0,1,0,0,1,1,1,1,1,1,0,1,1,0,0,0,1,0,1,1,1,1,1,1,1,1,1,1,1,1,1,1,1,1,0,1,1,1,12.63,0,1,1,1,0,0,0,100,1,0,1,1,1,1,47.1,0,1,0,0,0,-0.626786,0,0,'A+'
'Gauhati University',1,1,7,1,0,0,0,1,1,1,1,1,10,1,1,1,1,1,1,11,1,0,1,0,0,1,0,1,1,1,1,1,1,1,1,1,1,1,1,0,0,1,0,1,1,1,1,16.81,0,1,1,0,0,0,0,90,1,0,1,1,1,1,58.5,0,1,1,0,0,-1.25657,0,0,'A+'
'RWTH Aachen University',1,1,6,1,1,0,0,1,0,0,1,0,0,1,1,1,1,1,1,4,0,0,1,1,0,1,0,1,1,1,1,1,1,1,1,1,1,1,1,1,0,1,0,1,1,1,1,16.98,0,1,1,0,0,0,0,90,1,0,1,1,1,0,91.7,0,1,1,0,0,0.537227,0,0,'A+'
'University of Leicester',1,1,8,1,0,0,0,1,1,1,1,1,6,1,1,1,0,1,1,11,1,1,1,1,0,1,0,1,1,1,1,1,1,1,1,1,1,1,1,0,1,1,0,0,1,1,1,11.03,0,1,1,0,0,0,1,100,1,0,1,1,1,1,100,0,1,1,0,0,-0.0634251,0,0,'A+'
'Southern Cross University',1,1,6,1,1,0,1,1,1,1,1,0,0,0,1,1,1,1,1,4,1,1,0,0,0,1,0,1,1,1,1,1,1,1,1,1,1,1,1,1,0,1,1,1,1,1,1,16.04,0,1,1,1,0,0,0,100,1,0,1,1,1,1,83,0,1,0,0,0,-0.524304,0,0,'A+'
'Maynooth University',1,1,20,1,0,0,0,1,0,0,1,1,10,1,1,1,0,1,1,7,1,1,1,1,0,1,0,1,1,1,1,1,1,1,1,1,1,1,1,1,1,1,1,1,1,1,1,12.63,0,1,1,0,0,1,1,75,1,0,1,1,1,1,72.7,0,1,1,0,0,-1.01812,0,0,'A+'
'Sophia University',1,1,5,1,1,0,0,0,0,0,1,1,7,1,1,1,0,1,1,12,1,1,1,1,1,1,0,1,1,1,1,1,1,1,1,1,1,1,1,0,1,1,0,1,1,1,1,13.46,0,1,1,0,0,0,1,100,1,1,0,1,1,1,41.6,0,1,0,0,0.693147,0.0988196,0,0,'A+'
'City, University of London',1,1,2,1,0,1,0,1,1,2,1,1,8,0,1,1,1,1,1,18,1,1,1,0,0,1,0,1,1,1,1,1,1,1,1,1,1,1,1,0,1,1,0,0,1,1,1,16.67,0,1,1,0,0,1,0,100,1,0,1,1,1,1,87.9,0,1,1,0,0,-1.01157,0,0,'A+'
'Sorbonne University',1,1,5,1,1,0,0,0,1,0,1,1,10,1,1,1,1,1,1,2,1,1,1,1,0,1,0,1,1,1,1,1,1,1,1,1,1,1,1,0,0,1,1,1,1,1,1,12.63,0,1,0,0,0,0,0,90,1,0,1,0,1,1,34.6,0,1,1,1,0,-1.23587,0,0,'A+'
'University of Otago',1,1,7,1,0,0,0,1,0,0,1,0,0,1,1,1,1,1,1,3,1,1,0,0,0,1,0,1,1,1,1,1,1,1,1,1,1,1,1,1,0,1,1,0,1,1,1,15.42,0,1,1,0,0,0,0,100,1,0,1,1,1,1,82.6,0,1,1,0,0,0.257822,0,0,'A+'
'University of Tartu',1,1,8,1,1,0,0,1,1,1,1,1,10,0,1,1,1,1,1,20,1,1,1,1,0,1,0,1,1,1,1,1,1,1,1,1,1,1,1,1,0,1,0,0,0,1,1,15.43,0,1,1,0,0,0,0,75,1,0,1,1,1,1,74.1,0,1,1,0,0,-1.28251,0,0,'A+'
'University of Wollongong',1,1,7,1,0,0,0,1,0,0,1,0,0,0,1,1,1,1,1,3,0,1,1,0,0,1,0,1,1,1,1,1,1,1,1,1,1,1,1,0,0,1,1,0,1,1,1,17.63,0,1,1,0,0,0,1,100,1,0,1,1,0,1,35,0,1,1,0,0,-0.0294467,0,0,'A+'
'FAU Erlangen-Nuremberg',1,1,1,1,1,0,0,1,1,0,1,1,7,1,1,1,1,1,1,13,0,0,1,1,0,1,0,1,1,1,1,1,1,1,1,1,1,1,1,1,0,1,0,0,1,1,1,21,0,1,1,0,0,1,1,90,1,0,1,1,1,0,93.8,0,1,1,1,0,-0.793325,1,0,'A+'
'University of Surrey',1,1,4,1,0,0,0,1,0,0,1,0,0,0,1,1,1,1,1,1,1,1,0,0,0,1,0,0,1,1,1,1,1,1,1,1,1,1,1,0,1,1,1,0,1,1,1,10.76,0,1,1,1,0,0,0,100,1,0,0,1,1,1,42.1,0,1,1,0,0,-0.465476,0,0,'A+'
'University of Limpopo',1,1,9,1,0,0,0,0,1,1,1,1,10,1,1,1,1,1,1,6,1,0,0,0,1,1,0,1,1,1,1,1,1,1,1,1,1,0,1,1,1,1,1,0,1,1,1,4.32,0,1,1,0,0,0,0,90,1,0,1,1,1,1,19.1,0,1,0,0,0,-0.141202,6,0,'A+'
'Lancaster University',1,1,2,1,0,0,1,1,0,0,1,0,0,1,1,1,1,1,1,0,1,1,0,0,0,1,0,1,1,1,1,1,1,1,1,1,1,1,1,0,1,1,1,0,1,1,1,16.52,0,1,1,0,0,0,1,100,1,0,1,1,1,1,88.9,0,1,1,0,0,-1.12117,5,0,'A+'
'Sharda University',1,1,8,0,0,0,0,1,1,1,1,1,10,1,1,1,1,1,1,3,1,1,0,1,0,1,0,1,1,1,1,1,1,1,1,1,1,1,1,1,1,1,1,0,1,1,1,11.29,0,1,1,0,0,1,1,75,1,2,1,1,1,1,82.1,0,1,0,0,1.09861,-0.483732,4,0,'A+'
'University of Mannheim',1,1,6,1,1,1,0,1,0,0,1,1,4,1,1,1,1,1,1,19,1,1,1,1,0,1,0,1,1,1,1,1,1,1,1,1,1,1,1,1,0,0,0,1,0,1,1,13.01,0,1,1,0,0,1,0,90,1,0,1,1,1,1,88.6,0,1,1,1,0,-0.756709,0,0,'A+'
'Symbiosis International University',1,1,7,1,0,0,0,0,1,1,1,1,10,1,1,1,1,1,1,13,1,1,1,0,1,1,0,1,1,1,1,1,1,1,1,1,1,1,1,1,1,0,0,1,1,1,1,15.95,0,1,1,1,0,0,1,100,1,1,0,1,1,1,98.1,0,1,0,0,0.693147,-0.0587765,0,0,'A+'
'Makerere University',1,1,6,1,0,0,0,0,1,1,1,1,4,1,1,1,1,1,1,14,1,1,1,0,0,1,0,1,1,1,1,1,1,1,1,1,1,0,1,1,1,1,0,0,1,1,0,14.55,0,1,1,0,0,0,0,75,1,0,1,0,1,1,31.6,0,1,1,0,0,0.11096,4,0,'A+'
'Nazarbayev University',1,1,7,1,1,0,0,1,1,1,1,1,10,1,1,1,1,1,1,6,1,0,1,1,1,1,0,1,1,1,1,1,1,1,1,1,1,1,1,1,0,1,0,0,1,1,0,11.9,0,1,0,0,0,0,1,90,1,0,1,0,1,1,84.6,0,1,0,0,0,1.3963,0,0,'A+'
'Lincoln University',1,1,19,1,0,0,0,1,1,1,1,1,10,0,1,1,1,1,1,20,1,1,0,1,0,1,0,1,1,1,1,1,1,1,1,1,1,1,1,0,1,1,1,0,1,1,1,15.91,0,1,1,0,0,0,1,100,1,0,1,1,1,1,90,0,1,0,0,0,1.03555,0,0,'A+'
'University of Arizona',1,1,3,1,0,0,0,1,0,0,1,0,1,0,1,1,1,1,1,6,1,1,1,1,0,1,0,1,1,1,1,1,1,1,1,1,1,1,1,0,0,1,1,0,1,1,1,15.43,0,1,1,0,0,0,0,90,1,0,1,1,1,1,66.7,0,1,1,0,0,0.450543,6,0,'A+'
'Indian Institute of Technology Madras',1,1,9,1,1,1,0,1,1,0,1,1,8,1,1,1,1,1,1,2,1,1,1,1,1,1,0,1,1,1,1,1,1,1,1,1,1,1,1,0,0,0,1,1,1,1,1,21,0,1,1,0,0,0,0,75,1,0,1,1,1,1,85.1,0,1,1,0,0,-0.934921,1,0,'A+'
'University of Caen Normandy',1,1,5,1,1,1,0,1,1,2,1,0,0,1,1,1,1,1,1,20,1,0,1,1,0,1,0,1,1,1,1,1,1,1,1,1,1,1,1,1,0,0,1,1,0,1,1,21,0,1,0,0,0,1,1,75,1,0,1,1,1,0,52.6,0,1,1,0,0,-1.25697,0,0,'A+'
'Queensland University of Technology',0,1,16,1,0,0,0,1,0,0,1,0,0,0,1,1,1,1,1,6,1,1,0,1,0,1,0,1,1,1,1,1,1,1,1,1,1,1,1,1,1,1,1,0,1,1,1,11.46,0,1,0,1,0,0,1,75,1,0,1,1,1,1,20,0,1,0,0,0,0.122579,0,0,'A+'
'University of Liege',1,1,4,1,1,0,0,0,1,1,1,0,0,1,1,1,1,1,1,1,1,1,0,0,0,1,0,1,1,1,1,1,1,1,1,1,1,1,1,1,1,0,1,1,1,1,1,8.86,0,1,0,0,0,0,0,90,1,0,1,1,1,1,88.5,0,1,1,0,0,0.184886,0,0,'A+'
'London School of Economics',1,1,3,1,0,0,0,1,0,0,1,0,1,1,1,1,1,1,1,7,1,1,0,1,0,1,0,1,1,1,1,1,1,1,1,1,1,1,1,0,0,1,1,0,1,1,1,12.63,0,1,1,0,0,1,1,75,1,1,1,1,1,1,94.1,0,1,1,0,0.693147,0.304435,11,0,'A+'
'Curtin University',0,1,4,1,0,0,1,1,1,1,1,1,5,0,1,1,1,1,1,1,1,1,1,1,1,1,1,1,1,1,1,1,1,1,1,1,1,1,1,1,0,1,1,0,1,1,1,8.72,0,1,0,0,0,0,0,90,1,0,1,1,1,0,93.2,0,1,1,0,0,-0.0762114,0,0,'A+'
'University of Houston',1,1,4,1,0,0,0,1,0,1,1,1,10,1,1,1,1,1,1,7,0,0,0,0,1,1,0,1,1,1,1,1,1,1,1,1,1,1,1,0,0,1,1,0,1,1,1,18.88,0,1,1,0,0,0,0,75,1,0,1,1,0,1,77.8,0,1,1,0,0,1.14827,0,0,'A+'
'Sokoine University of Agriculture',1,1,6,1,0,0,0,0,1,1,1,0,0,1,1,1,0,1,1,6,1,1,1,0,0,1,0,1,1,1,1,1,1,1,1,1,1,1,1,1,1,0,0,1,1,1,1,16.67,0,1,1,0,0,0,0,75,1,0,1,1,1,1,100,0,1,0,0,0,-1.28827,0,0,'A+'
'University of Fort Hare',1,1,4,1,0,0,0,0,1,1,1,1,8,1,1,1,1,1,1,8,0,0,1,1,0,1,0,1,1,1,1,1,1,1,1,1,1,1,1,0,1,0,0,0,1,1,1,12.63,0,1,1,0,0,0,0,90,1,0,1,1,1,1,65,0,1,1,0,0,-1.34549,0,0,'A+'
'Polytechnic University of Milan',1,1,8,0,1,0,0,1,0,0,1,1,10,1,1,1,1,1,1,12,1,1,1,1,1,1,0,1,1,1,1,1,1,1,1,1,1,1,1,1,0,1,1,0,0,1,1,13.93,0,1,1,0,0,1,0,100,1,0,1,1,1,0,8.3,0,1,1,0,0,0.359629,0,0,'A+'
'Walter Sisulu University',1,1,10,1,1,0,0,0,1,1,1,1,10,0,1,1,1,1,1,0,0,0,0,1,0,1,0,1,1,1,1,1,1,1,1,1,1,1,1,1,1,1,0,0,1,1,0,19.68,0,1,0,1,0,0,0,90,1,1,1,0,1,0,69.2,0,1,1,0,0.693147,0.223157,7,0,'A+'
'Kansas State University',1,1,2,1,0,0,0,1,0,0,0,1,4,0,1,1,1,1,1,12,1,1,1,1,0,1,0,1,1,1,1,1,1,1,1,1,1,1,1,1,0,1,1,0,1,1,1,21,0,1,1,0,0,0,1,90,1,1,1,1,0,1,100,0,1,1,0,0.693147,-0.451447,0,0,'A+'
'Charles Darwin University',0,1,5,1,0,0,0,1,0,0,0,1,2,1,1,1,0,1,1,3,1,1,1,0,0,1,0,1,1,1,1,1,1,1,1,1,1,0,1,0,0,1,1,0,1,1,1,18.69,0,1,0,1,0,0,0,100,1,0,1,1,1,1,90.9,0,1,0,0,0,0.915785,5,0,'A+'
'University of Lausanne',1,1,7,1,1,1,0,0,0,0,1,0,0,0,1,1,1,1,1,8,1,1,0,0,0,1,0,1,1,1,1,1,1,1,1,1,1,1,1,1,0,0,1,1,1,1,1,21,0,1,1,0,0,0,0,90,1,0,1,1,1,1,100,0,1,1,0,0,0.161607,0,0,'A+'
'Australian Catholic University',1,1,7,1,0,0,0,1,0,0,0,1,10,0,1,1,0,1,1,11,1,1,1,1,0,1,0,1,1,1,1,1,1,1,1,1,1,1,1,1,0,1,1,0,1,1,1,4.86,0,1,1,1,0,1,1,75,1,0,1,1,1,1,64.4,0,1,1,0,0,0.180587,0,0,'A+'
'Tshwane University of Technology',1,1,4,1,0,0,0,0,1,1,0,0,0,1,1,1,1,1,1,0,1,1,0,0,0,1,0,1,1,1,1,1,1,1,1,1,1,1,1,1,0,1,1,0,1,1,1,8.2,0,1,1,0,0,0,0,90,1,0,1,1,1,0,100,0,1,0,0,0,-1.37747,0,0,'A+'
'North South University',1,1,10,1,0,0,1,1,1,1,1,0,0,1,1,1,1,1,1,20,1,1,1,0,1,1,0,1,1,1,1,1,1,1,1,1,1,1,1,1,0,1,1,0,1,1,0,4.61,0,1,0,0,0,0,0,75,1,0,1,1,1,1,87.3,0,1,0,0,0,-0.384825,0,0,'A+'
'Vrije Universiteit Brussel',1,1,4,1,1,1,0,0,0,0,0,1,9,0,1,1,1,1,1,12,1,1,1,1,0,1,0,1,1,1,1,1,1,1,1,1,1,1,1,1,1,0,1,0,0,1,1,21,0,1,1,0,0,1,1,100,1,0,1,1,1,0,97.7,0,1,0,0,0,0.414284,0,0,'A+'
'Jawaharlal Nehru University',1,1,10,1,0,0,1,1,1,1,1,0,0,1,1,1,1,1,1,18,0,0,1,0,0,1,0,1,1,1,1,1,1,1,1,1,1,1,1,1,1,0,1,1,1,1,1,15.43,0,1,1,0,0,0,0,75,1,0,0,0,1,1,100,0,1,0,0,0,-0.168926,0,0,'A+'
'KIIT University',1,1,14,1,0,0,1,1,1,2,1,1,10,1,1,1,1,1,1,9,1,1,1,1,1,1,0,1,1,1,1,1,1,1,1,1,1,1,1,1,1,0,1,0,1,1,1,9.74,0,1,0,0,0,0,1,90,1,5,1,1,1,1,82.6,0,1,0,0,1.79176,-0.939483,0,0,'A+'
'Texas A&M University',1,1,3,1,0,0,0,1,1,1,1,0,0,1,1,1,1,1,1,12,1,1,0,0,1,1,0,1,1,1,1,1,1,1,1,0,0,1,1,1,0,1,1,0,1,1,1,21,0,1,1,0,0,0,1,75,1,0,1,1,1,1,100,0,1,1,0,0,-0.186485,0,0,'A+'
'University of Parma',1,1,4,1,1,0,0,0,0,0,0,1,10,1,1,1,1,1,1,20,1,1,1,1,0,1,0,1,1,1,1,1,1,1,1,1,1,0,1,0,1,0,1,0,1,1,1,17.4,0,1,1,1,0,1,0,100,1,0,1,1,1,1,43.4,0,1,1,0,0,-1.47687,0,0,'A+'
'Vilnius Gediminas Technical University',1,1,1,1,1,0,0,0,0,0,1,1,6,1,1,1,1,1,1,5,1,1,0,1,0,1,0,1,1,1,1,1,1,1,1,1,1,1,1,0,0,1,1,0,0,1,1,21,0,1,1,0,0,1,1,90,1,1,1,1,1,0,98.3,0,1,0,0,0.693147,-0.42445,0,0,'A+'
'Alagappa University',1,1,14,1,0,0,0,1,1,1,1,1,10,1,1,1,1,1,1,8,0,0,1,1,0,1,0,1,1,1,1,1,1,1,1,1,1,1,1,1,1,0,0,0,1,0,1,20.14,0,1,1,1,0,0,0,75,1,0,1,1,1,0,44.2,0,1,1,0,0,-0.4399,0,0,'A+'
'University of Colorado Boulder',1,1,6,1,1,0,0,1,0,0,1,0,0,1,1,1,1,1,1,20,1,1,1,1,0,1,0,1,1,1,1,1,1,1,1,1,1,1,0,0,0,1,0,0,1,1,1,18.88,0,1,0,0,0,0,1,90,1,0,1,0,1,0,92.3,0,1,1,0,0,-0.723038,0,0,'A+'
'West Virginia University',1,1,8,1,0,0,0,1,1,1,1,1,5,1,1,1,1,1,1,0,0,0,0,0,0,1,0,1,1,1,1,1,1,1,1,1,1,1,1,1,0,1,1,0,1,1,1,13.33,0,1,1,0,0,0,0,75,1,0,1,1,1,1,44.4,0,1,0,0,0,0.648799,5,0,'A+'
'University of Port Harcourt',1,1,6,1,0,0,0,1,0,0,1,1,4,1,1,1,0,1,1,9,1,1,0,1,0,1,0,1,1,1,1,1,1,1,1,1,1,0,1,0,1,1,0,1,1,1,1,4.67,0,1,1,0,0,0,0,90,1,0,0,0,1,1,73.5,0,1,0,0,0,0.557924,18,0,'A+'
'University of Newcastle',1,1,8,1,0,0,0,1,0,0,1,0,1,1,1,1,1,1,1,2,1,1,0,1,1,1,0,1,1,1,1,1,1,1,1,1,1,1,1,0,0,1,1,0,1,1,1,1.61,0,0,1,0,0,1,1,75,1,1,1,1,1,1,78,0,1,1,0,0.693147,-0.456194,0,0,'A+'
'University of Stuttgart',1,1,3,1,1,0,0,1,0,0,1,1,9,1,1,1,1,1,1,4,1,1,1,0,0,1,0,1,1,1,1,1,1,1,0,1,1,1,1,0,0,1,0,0,1,1,1,12.63,0,1,1,0,0,1,0,90,1,0,0,1,1,0,67.6,0,1,1,0,0,-0.386909,0,0,'A+'
'University of South Africa',1,1,9,1,0,0,0,0,1,1,1,1,10,1,1,1,1,1,1,1,1,1,0,1,0,1,0,1,1,1,1,1,1,1,1,1,1,1,1,0,0,1,0,0,1,1,1,15.43,0,1,0,0,0,0,0,75,1,0,1,1,0,0,82.9,0,1,0,0,0,2.20203,0,0,'A+'
'Durham University',1,1,6,1,0,0,1,1,0,0,1,0,0,1,1,1,0,1,1,0,1,1,0,0,1,1,0,0,1,1,1,1,1,1,1,1,1,1,1,0,0,1,0,0,1,1,1,15.43,0,1,1,1,0,1,1,100,1,0,1,1,1,1,90,0,1,1,0,0,0.352933,0,0,'A+'
'Loughborough University',0,1,4,1,0,1,0,0,0,0,0,0,1,0,1,1,0,1,1,0,0,0,0,1,0,1,0,1,1,1,1,1,1,1,1,1,1,1,1,0,1,1,1,0,1,1,1,6.66,0,1,0,0,0,1,0,75,1,1,1,1,1,1,0,1,1,1,0,0.693147,-1.39252,0,0,'A+'
'Vita-Salute San Raffaele University',1,1,6,1,0,0,0,1,1,1,1,0,0,0,1,1,0,1,1,0,1,1,0,0,0,1,0,1,1,1,1,1,1,1,1,1,1,1,1,1,0,1,1,0,1,1,1,12.63,0,1,1,1,0,0,0,100,1,0,1,1,1,1,53.1,0,1,1,0,0,-0.387369,28,0,'A+'
'Ashoka University',1,1,9,1,1,0,0,1,0,0,1,0,0,1,1,1,1,1,1,9,1,1,0,1,1,1,0,1,1,1,1,1,1,1,1,1,1,1,1,1,1,0,1,0,1,1,1,20.87,0,1,1,0,0,0,1,100,1,0,1,1,1,1,25.6,0,1,0,0,0,-1.20084,81,0,'A+'
'Murdoch University',1,1,4,1,0,0,0,1,0,1,1,0,0,0,1,1,0,1,1,4,1,1,1,1,1,1,0,1,1,1,1,1,1,1,1,1,1,1,1,0,0,1,1,0,1,1,1,21,0,1,1,1,0,0,0,75,1,0,1,1,0,1,88.5,0,1,0,0,0,0.155168,4,0,'A+'
'Jamia Millia Islamia',1,1,5,1,1,0,0,1,1,1,0,0,0,1,1,1,1,1,1,1,1,1,0,0,1,1,0,1,1,1,1,1,1,1,1,1,1,1,1,0,1,0,1,1,1,1,1,21,0,1,1,0,0,0,0,75,1,0,1,1,1,0,100,0,1,1,0,0,0.115573,82,0,'A+'
'University of Tsukuba',1,1,12,1,0,0,0,0,0,0,1,0,1,1,1,1,1,1,1,3,0,1,1,1,0,1,0,1,1,1,1,1,1,1,1,1,1,1,1,1,0,0,1,1,1,1,1,10.5,0,1,1,0,0,0,1,75,1,0,1,1,1,0,38.5,0,1,1,0,0,-1.52235,0,0,'A+'
'Tallinn University',1,1,2,1,1,0,0,0,1,1,1,1,10,0,1,1,1,1,1,11,1,1,1,1,0,1,0,1,1,1,1,1,1,1,1,1,1,1,1,0,0,1,1,0,0,1,1,9.98,0,1,1,0,0,0,0,75,1,0,0,1,1,0,98.1,0,1,0,0,0,0.0893123,0,0,'A+'
'University of Canberra',1,1,16,1,0,0,0,1,0,0,1,0,0,1,1,1,1,1,1,0,1,1,0,0,0,1,0,0,1,1,1,1,1,1,1,1,1,1,1,0,0,1,1,0,1,1,1,12.63,0,1,1,0,0,0,0,100,1,0,1,1,1,1,82.9,0,1,1,0,0,0.106774,0,0,'A+'
'American University in Cairo',1,1,9,1,1,0,0,0,1,1,1,1,3,0,1,1,1,1,1,13,1,1,1,0,1,1,0,1,1,1,1,1,1,1,1,1,1,1,1,1,0,0,1,1,1,1,1,12.52,0,1,1,0,0,0,0,75,1,0,1,1,1,1,82.9,0,1,0,0,0,-0.610745,7,0,'A+'
'University of Pretoria',1,1,4,1,0,0,0,0,0,1,1,1,2,1,1,1,1,1,1,5,1,1,0,0,1,1,0,0,1,1,1,1,1,1,1,1,1,1,1,1,1,0,1,0,1,1,1,12.63,0,1,1,0,0,0,0,100,1,0,1,1,1,1,92.9,0,1,0,0,0,-0.758705,0,0,'A+'
'Monash University',1,1,2,1,0,0,1,1,1,1,1,0,0,0,1,1,0,1,1,2,1,1,0,1,1,1,0,0,1,1,1,1,1,1,1,1,1,1,1,1,0,1,1,1,1,1,1,11.03,0,1,1,0,0,0,1,90,1,0,1,1,1,1,90.9,0,1,1,0,0,-0.878868,4,0,'A+'
'Vidyasagar University',1,1,9,0,0,0,0,1,1,1,1,1,8,1,1,1,1,1,1,11,1,0,1,1,1,1,0,1,1,1,1,1,1,1,1,1,1,0,1,1,1,0,1,1,1,1,1,12,0,1,1,0,0,0,1,75,1,0,1,1,1,0,96.1,0,1,1,0,0,-0.814017,0,0,'A+'
'University of Southern Denmark',1,1,6,1,1,0,1,1,1,1,1,1,10,1,1,1,1,1,1,0,1,1,1,1,1,1,0,1,1,1,1,1,1,1,1,1,1,1,1,1,0,1,1,0,1,1,1,21,0,1,1,0,0,0,0,75,1,0,1,1,1,0,2.5,0,1,0,0,0,1.33357,15,0,'A+'
'Queen Mary University of London',1,1,6,1,1,0,0,1,0,0,0,0,1,0,1,1,1,1,1,6,1,1,1,0,0,1,0,0,1,1,1,1,1,1,1,1,1,0,1,1,1,0,0,1,1,1,0,10.6,0,1,1,0,0,0,1,90,1,0,1,1,1,1,47.6,0,1,1,0,0,-0.737795,0,0,'A+'
'Miguel Hernandez University',1,1,3,1,1,0,0,1,1,1,1,1,8,1,1,1,1,1,1,20,0,0,1,0,0,1,0,1,1,1,1,1,1,1,1,1,1,1,1,0,0,0,1,0,1,1,1,16.48,0,1,1,0,0,0,0,100,1,0,1,1,1,1,64.7,0,1,1,0,0,-0.911342,0,0,'A+'
'University of Waikato',1,1,0,1,1,0,0,1,0,0,1,0,0,0,1,1,1,1,1,19,1,1,0,1,0,1,0,0,1,1,1,1,1,1,1,1,1,1,1,1,1,1,0,0,1,1,0,21,0,1,0,0,0,0,1,100,1,1,1,1,1,1,7.8,0,1,1,0,0.693147,-0.697676,0,0,'A+'
'NIT Warangal',1,1,9,1,0,0,0,1,1,2,1,1,10,1,1,1,1,1,1,3,1,1,1,1,0,1,0,1,1,1,1,1,1,1,1,1,1,1,1,1,1,0,1,0,1,1,1,8.06,0,1,1,0,0,1,0,75,1,0,1,0,1,1,19.1,0,1,0,0,0,0.741436,0,0,'A+'
'COMSATS University Islamabad',1,1,6,0,0,0,0,1,0,0,1,1,10,1,1,1,1,1,1,13,1,1,1,1,1,1,0,1,1,1,1,1,1,1,1,0,1,1,1,1,1,1,1,0,1,1,1,15.43,0,1,1,0,0,0,1,75,1,14,1,1,1,1,100,0,1,0,0,2.70805,0.757568,13,0,'A+'
'University of Tuebingen',1,1,4,1,1,0,0,1,0,0,1,1,4,1,1,1,1,1,1,1,1,1,1,0,0,1,0,1,1,1,1,1,1,1,1,1,1,1,1,1,0,0,1,0,1,1,1,8.49,0,1,1,1,0,1,1,100,1,0,1,1,1,0,61.5,0,1,1,0,0,-1.13475,0,0,'A+'
'Worcester Polytechnic Institute',1,1,6,1,0,0,0,0,0,0,1,0,0,0,1,1,1,1,1,1,1,1,0,1,1,1,0,1,1,1,1,1,1,1,1,1,1,1,1,0,0,1,0,0,0,1,1,15.81,0,1,1,0,0,0,1,100,1,0,0,1,1,0,51.1,0,1,1,0,0,0.578985,12,0,'A+'
'University of Engineering and Technology Lahore',1,1,7,1,0,0,1,1,0,0,1,1,2,1,1,1,1,1,1,7,1,1,1,1,0,1,0,1,1,1,1,1,1,1,1,0,1,1,1,0,0,1,1,0,1,0,0,7.46,0,1,1,0,0,0,0,90,1,1,1,0,1,1,76,0,1,0,0,0.693147,-0.679263,27,0,A
'University of Sheffield',1,1,2,1,0,0,1,1,0,0,1,0,0,0,1,1,0,1,1,4,1,1,1,1,0,1,0,1,1,1,1,1,1,1,1,1,1,1,1,0,0,1,1,0,1,1,1,11.77,0,1,1,0,0,0,1,100,1,0,1,1,1,1,32.3,0,1,1,0,0,-0.761559,15,0,A
'University of Bremen',1,1,3,1,1,0,0,1,1,1,1,1,10,0,1,1,1,1,1,20,1,1,1,1,0,1,0,1,1,1,1,1,1,1,1,1,1,1,1,1,0,0,1,1,1,1,1,16.1,0,1,1,0,0,1,1,90,1,0,1,1,1,0,89.1,0,1,1,0,0,-0.887897,12,0,A
'San Francisco de Quito University',1,1,5,1,1,0,0,1,0,0,1,0,0,0,1,1,1,1,1,12,1,1,1,1,1,1,0,1,1,1,1,1,1,1,1,1,1,1,1,0,0,0,1,0,1,1,1,15.43,0,1,0,0,0,0,0,100,1,0,1,1,1,1,95.9,0,1,0,0,0,-0.47625,0,0,A
'Massey University',1,1,19,1,0,0,0,1,0,0,1,0,0,0,1,1,1,1,1,0,1,1,0,1,0,1,0,1,1,1,1,1,1,1,1,1,1,1,1,1,0,1,1,0,1,0,1,16.29,0,1,0,0,0,0,0,90,1,0,1,1,1,1,57.1,0,1,0,0,0,-1.03171,0,0,A
'University of Bordeaux',1,1,1,1,1,0,0,0,1,0,1,1,6,1,1,1,1,1,1,16,1,1,1,1,0,1,0,1,1,1,1,1,1,1,1,1,1,1,1,1,0,0,1,1,1,1,1,19.85,0,1,1,0,0,0,0,100,1,0,1,1,1,0,15.6,0,1,1,0,0,-1.32268,0,0,A
'Aarhus University',1,1,5,1,1,0,0,1,0,0,0,0,0,1,1,1,0,1,1,0,0,0,1,0,0,1,0,1,1,1,1,1,1,1,1,1,1,1,1,1,0,1,1,0,1,1,1,18.16,0,1,1,0,0,1,0,75,1,1,1,1,1,0,16.7,0,1,1,0,0.693147,-0.403883,8,0,A
'University of Tasmania',1,1,6,1,0,0,0,1,0,0,1,0,0,0,1,1,0,1,1,0,0,0,0,0,1,1,0,1,1,1,1,1,1,1,1,1,1,1,1,1,0,1,1,0,1,1,1,21,0,1,1,0,0,0,1,75,1,0,1,1,1,1,83.3,0,1,1,0,0,-0.0265138,0,0,A
'Barnard College',1,1,1,1,0,0,0,0,1,1,1,0,0,1,1,1,1,1,1,1,1,1,0,0,0,1,0,1,1,1,1,1,1,1,1,1,1,1,1,0,0,1,0,0,1,1,1,21,0,1,1,0,0,0,1,90,1,0,1,1,1,0,28.6,0,1,1,0,0,0.296828,0,0,A
'Gujarat University',1,1,8,1,1,0,0,1,0,0,1,1,10,1,1,1,0,1,0,5,0,0,1,0,1,1,0,1,1,1,1,1,1,1,1,1,1,1,1,1,1,0,1,0,1,1,1,7.94,0,1,1,0,0,0,1,75,1,0,1,1,1,0,23.6,0,1,1,0,0,-0.115806,12,0,A
'University of Pennsylvania',1,1,6,1,0,0,0,0,0,0,1,1,3,1,1,1,0,1,1,11,1,1,1,0,0,1,0,1,1,1,1,1,1,1,1,1,1,1,1,1,0,0,1,0,1,1,1,21,0,1,0,0,0,0,0,100,1,0,1,1,1,1,100,0,1,1,0,0,-0.372725,0,0,A
'Institute of Business Administration Karachi',1,1,5,1,0,0,0,0,1,1,1,1,6,0,1,1,1,1,1,6,1,1,0,0,1,1,0,1,1,1,1,1,1,1,1,1,1,1,1,0,0,1,0,0,1,1,0,5.74,0,1,0,0,0,1,0,75,1,0,1,1,0,0,88.9,0,1,0,0,0,-0.728309,14,0,A
'Edith Cowan University',1,1,5,1,0,1,0,1,0,0,1,1,3,0,1,1,0,1,1,7,1,1,1,1,0,1,1,1,1,0,1,1,1,1,1,1,1,1,1,0,0,1,1,1,1,1,1,21,0,1,1,1,0,0,1,100,1,0,1,1,1,1,19.4,0,1,1,0,0,-0.548746,0,0,A
'University of Wuerzburg',1,1,6,1,1,0,0,1,1,0,1,1,3,1,1,1,1,1,1,7,1,1,1,1,0,1,0,1,1,1,1,1,1,1,1,1,1,1,1,0,0,0,0,1,1,1,0,7,0,1,1,0,0,1,0,75,1,0,1,0,1,0,73.8,0,1,1,0,0,-0.346413,0,0,A
'Kwame Nkrumah University of Science and Technology',1,1,8,1,0,0,0,0,1,1,0,0,0,1,1,1,1,1,1,1,1,1,0,0,1,1,1,1,1,1,1,1,1,1,1,1,1,1,1,0,0,1,1,0,1,1,1,4.83,0,1,1,0,0,0,0,75,1,3,1,0,1,1,35,0,1,0,0,1.38629,2.52291,4,0,A
'Lovely Professional University',1,1,3,1,1,0,0,1,1,1,1,1,7,0,0,1,1,1,1,0,1,0,0,1,0,1,0,1,1,1,1,1,1,1,1,1,1,1,1,1,1,1,1,0,1,1,1,20.62,0,1,1,0,0,0,1,90,1,0,1,1,1,1,91.4,0,1,0,0,0,-1.10927,3650,1,A
'University of Lille',1,1,2,1,1,0,0,0,0,0,0,1,10,0,1,1,1,1,1,3,1,1,1,1,0,1,0,0,1,1,1,1,1,1,1,1,0,1,1,0,1,0,1,1,1,1,1,21,0,1,1,0,0,0,0,75,1,0,1,1,1,0,32.3,0,1,1,0,0,-0.986834,0,0,A
'University of Vigo',1,1,3,1,1,0,1,1,1,1,1,1,10,1,1,1,1,1,1,8,1,1,1,1,0,1,0,1,1,1,1,1,1,1,1,1,1,1,1,0,0,0,1,0,0,1,1,21,0,1,1,0,0,0,0,75,1,0,1,1,1,0,78.9,0,1,1,0,0,-0.0674318,0,0,A
'Concordia University',1,1,5,1,1,0,0,1,0,0,1,1,2,1,1,1,1,1,1,7,1,1,0,0,0,1,0,1,1,1,1,1,1,1,1,1,1,1,1,1,0,0,1,0,1,1,1,21,0,1,1,0,0,1,0,75,1,0,1,1,1,1,86.7,0,1,1,0,0,2.40658,5,0,A
'University of New South Wales',1,1,5,1,0,1,1,1,0,0,1,1,3,0,0,1,1,1,1,0,1,1,0,0,0,1,0,1,1,1,1,1,1,1,1,1,1,1,1,1,0,1,1,0,1,1,1,17.9,0,1,1,1,1,1,0,100,1,0,1,1,1,1,44.1,0,1,1,0,0,-1.10275,3650,1,A
'Manipal Academy of Higher Education',1,1,5,1,0,0,1,1,0,0,1,0,0,1,1,1,0,1,1,4,1,1,0,1,0,1,0,1,1,1,1,1,1,1,1,1,1,1,1,1,1,0,0,0,1,1,1,12.63,0,1,1,1,0,1,0,100,1,0,1,1,1,1,43.9,0,1,0,0,0,0.850771,0,0,A
'Bharathiar University',1,1,11,1,1,0,1,1,0,0,1,1,10,1,1,1,1,1,1,20,1,1,1,0,1,1,0,1,1,1,1,1,1,1,1,0,1,1,1,1,1,0,0,1,1,1,0,17.4,0,1,1,1,0,0,0,75,1,0,1,0,1,1,98.4,0,1,1,0,0,2.09158,0,0,A
'University of Nairobi',1,1,6,1,0,0,0,1,0,0,1,0,0,1,1,1,0,1,1,6,1,1,0,0,0,1,1,1,1,1,1,1,1,1,1,1,1,1,1,1,0,1,1,0,1,1,1,4.48,0,1,1,1,0,1,0,75,1,0,0,0,1,1,34.6,0,1,0,0,0,0.502527,27,0,A
'Central University of Kerala',1,1,11,0,0,0,0,0,0,0,1,1,9,1,1,1,1,1,1,1,1,1,1,0,1,1,1,1,1,1,1,1,1,1,1,1,1,1,1,1,1,0,1,1,1,1,1,15.43,0,1,1,0,0,0,0,75,1,1,1,1,1,1,59.2,0,1,1,0,0.693147,-0.0877803,0,0,A
'Technical University of Munich',1,1,7,1,1,0,0,1,1,0,1,1,2,0,1,1,1,1,1,4,1,1,1,1,1,1,0,1,1,1,1,1,1,1,1,1,1,1,1,1,0,0,1,0,0,1,1,16.15,0,0,0,0,0,1,0,100,1,0,1,1,1,0,20.8,0,1,1,0,0,0.747467,0,0,A
'Georgetown University',0,1,5,1,0,0,0,0,0,0,1,0,0,1,1,1,1,1,1,12,1,1,1,1,1,1,0,1,1,1,1,1,1,1,1,1,1,1,1,0,0,0,1,0,1,1,1,21,0,1,0,0,0,0,1,75,1,0,1,0,1,1,84.8,0,1,1,0,0,-0.213002,5,0,A
'California Polytechnic State University',1,1,3,1,0,0,0,1,0,0,1,1,4,1,1,1,1,1,1,14,1,1,0,1,0,1,0,1,1,1,1,1,1,1,1,1,1,1,1,0,0,0,1,0,1,1,1,17.78,0,1,1,0,0,1,0,100,1,0,1,1,1,1,92.3,0,1,1,0,0,-1.16347,0,0,A
'ENS de Lyon',1,1,20,1,1,0,0,1,1,2,1,1,10,1,1,1,1,1,1,0,0,0,0,1,1,1,0,1,1,1,1,1,1,1,1,1,1,1,1,1,1,0,1,1,1,1,1,21,0,1,1,0,0,0,0,75,1,0,1,0,1,0,91.4,0,1,1,0,0,1.92258,0,0,A
'Rajshahi University of Engineering and Technology',1,1,11,1,0,0,0,1,1,1,1,1,10,1,1,1,0,1,1,20,1,1,1,1,0,1,0,1,1,1,1,1,1,1,1,0,1,0,1,1,0,1,1,0,1,0,1,14.53,0,1,1,0,0,1,0,75,1,0,1,1,1,1,39.4,0,1,0,0,0,-1.20932,4,0,A
'Masaryk University',1,1,2,1,1,1,0,0,1,1,1,0,0,1,0,1,1,1,1,16,1,0,0,0,0,1,0,1,1,1,1,1,1,1,1,1,1,1,1,0,0,1,1,0,1,1,1,20.12,0,1,1,0,0,0,0,90,1,0,1,1,1,1,100,0,1,1,0,0,0.286541,3650,1,A
'University of San Francisco',1,1,6,1,0,0,0,1,0,0,1,1,8,1,1,1,1,1,1,11,1,1,0,1,0,1,1,1,1,1,1,1,1,1,1,1,1,1,1,0,0,0,1,0,1,1,1,21,0,1,0,0,0,0,0,90,1,0,1,1,1,1,71.9,0,1,1,0,0,0.0927718,0,0,A
'Brock University',0,1,1,1,0,1,0,0,0,0,0,1,10,0,1,1,1,1,1,5,1,1,0,0,0,1,0,1,1,1,1,1,1,1,1,1,1,1,1,1,0,1,0,0,1,1,0,1.21,0,1,0,1,0,0,0,75,1,0,1,1,1,1,83.3,0,1,1,0,0,-0.434459,7,0,A
'Slovak University of Agriculture in Nitra',1,1,8,1,0,0,0,1,1,1,1,1,9,1,1,1,1,1,1,0,1,1,1,1,0,1,0,1,1,1,1,1,1,1,1,0,1,0,1,0,1,1,1,0,1,1,1,21,0,1,1,0,0,0,0,75,1,1,1,0,0,0,54.2,0,1,0,0,0.693147,-0.528528,29,0,A
'Aligarh Muslim University',1,1,9,1,1,0,0,1,1,1,1,1,10,1,1,1,1,1,1,0,0,0,1,0,1,1,0,1,1,1,1,1,1,1,1,1,1,1,1,1,0,0,1,1,1,0,1,14.74,0,1,1,0,0,1,0,75,1,1,1,1,1,0,78.7,0,1,1,0,0.693147,0.394205,1,0,A
'University of California, Davis',1,1,6,1,0,0,0,1,0,0,0,0,0,0,1,1,1,1,1,0,1,1,0,1,1,1,0,1,1,1,1,1,1,1,1,1,1,1,1,0,0,1,0,0,1,1,0,21,0,1,0,0,0,0,0,100,1,0,1,0,1,1,100,0,1,1,0,0,0.0579683,8,0,A
'Technical University of Berlin',1,1,3,1,1,0,0,1,0,0,1,1,9,1,1,1,1,1,1,13,0,0,1,0,0,1,0,1,1,1,1,1,1,1,1,1,1,1,1,1,0,0,0,0,1,1,0,21,0,1,1,0,0,1,0,100,1,0,1,1,1,0,82.4,0,1,1,0,0,-0.968162,4,0,A
'Columbia University',1,1,7,1,0,0,0,0,0,0,1,1,6,1,1,1,1,1,1,20,1,1,1,0,1,1,0,1,1,1,1,1,1,1,1,1,1,1,1,0,0,0,0,0,1,1,1,7.02,0,1,1,1,0,0,0,75,1,0,1,0,1,0,98.2,0,1,1,0,0,-1.19599,0,0,A
'Dublin City University',1,1,6,1,0,0,0,1,1,1,1,1,6,0,1,1,1,1,1,6,1,1,1,1,0,1,0,1,1,1,1,1,1,1,1,1,1,1,1,1,0,0,1,0,0,1,1,15.29,0,1,1,1,0,1,0,75,1,0,1,1,1,0,99.2,0,1,1,0,0,0.506431,11,0,A
'University of Trieste',1,1,7,1,1,0,0,0,0,0,0,1,6,1,1,1,1,1,1,4,1,1,1,1,1,1,0,1,1,1,1,1,1,1,1,1,1,1,1,1,0,0,1,0,0,1,1,1.3,0,1,1,0,0,0,0,100,1,0,1,1,1,0,96.4,0,1,1,0,0,0.262358,0,0,A
'University of Kent',1,1,20,1,0,1,0,1,1,1,1,1,10,1,0,1,1,1,1,0,1,1,1,0,1,1,0,1,1,1,1,1,1,1,1,1,1,1,1,1,0,1,1,0,1,1,1,21,0,1,0,1,0,1,1,90,1,0,1,1,1,1,98.3,0,1,1,0,0,0.254239,3650,1,A
'Lingnan University',1,1,8,1,1,0,1,1,1,1,1,1,5,1,1,1,0,1,1,7,1,1,0,0,0,1,0,1,1,1,1,1,1,1,1,1,1,0,1,1,0,0,0,1,1,1,1,17.4,0,1,1,0,0,0,0,100,1,0,1,1,1,1,93.1,0,1,1,0,0,1.49244,0,0,A
'Technical University of Kenya',1,1,8,0,0,0,0,0,1,1,1,0,0,1,1,1,1,1,1,4,1,1,1,1,0,1,0,1,1,1,1,1,1,1,1,1,1,0,1,0,1,0,1,0,1,1,1,21,0,1,1,0,0,1,0,75,1,0,1,1,1,1,100,0,1,0,0,0,-0.792083,0,0,A
'University of Burgundy',1,1,10,1,1,0,0,1,0,0,1,1,10,0,1,1,1,1,0,15,1,1,1,1,0,1,0,1,1,1,1,1,1,1,1,1,1,0,1,1,1,0,1,0,0,1,1,21,0,1,1,0,0,0,1,75,1,0,1,1,1,0,76.9,0,1,1,0,0,0.579906,25,0,A
'University of Auckland',0,1,2,1,0,0,0,1,1,0,1,0,0,1,0,1,1,1,1,6,0,0,0,1,0,1,0,1,1,1,1,1,1,1,1,1,1,1,1,1,0,1,1,0,1,1,1,8.84,0,0,0,1,0,0,0,100,1,0,1,1,1,1,83.3,0,1,1,0,0,-0.151165,3650,1,A
'Lehigh University',1,1,12,1,0,1,0,1,1,1,1,1,10,0,1,1,0,1,1,3,1,1,1,1,1,1,0,1,1,1,1,1,1,1,1,1,1,1,1,0,0,0,1,0,1,1,1,18.42,0,1,1,1,0,0,1,75,1,0,1,1,1,1,76.7,0,1,1,0,0,0.372857,19,0,A
'Semmelweis University',1,1,6,1,1,0,0,1,0,0,1,1,10,0,1,1,1,1,1,3,1,1,1,0,0,1,0,1,1,1,1,1,1,1,1,0,1,1,1,0,1,0,1,1,1,1,1,15.87,0,1,1,0,0,0,0,90,1,2,1,1,1,1,16.2,0,1,0,0,1.09861,1.02333,46,0,A
'California Institute of Technology',1,1,8,1,0,0,0,1,0,0,1,0,0,1,1,1,1,1,1,14,1,1,0,1,0,1,0,1,1,1,1,1,1,1,1,1,1,1,1,0,0,0,0,0,1,1,0,12.63,0,1,1,0,0,0,0,100,1,0,1,1,1,1,90.5,0,1,1,0,0,-1.48291,0,0,A
'University of Tokyo',1,1,7,1,1,0,0,0,0,0,1,1,2,1,1,1,1,1,1,6,1,1,0,1,0,1,0,1,1,1,1,1,1,1,1,1,1,1,1,0,0,0,0,1,1,1,1,21,0,1,1,0,0,0,0,75,1,4,0,1,1,0,56.6,0,1,0,0,1.60944,-0.127531,0,0,A
'University of Marburg',1,1,6,1,1,0,0,0,0,0,0,1,10,0,1,1,1,1,1,6,1,1,1,0,0,1,0,1,1,1,1,1,1,1,1,1,1,1,1,1,0,0,1,0,0,1,1,12.63,0,1,1,0,0,1,1,90,1,0,1,1,1,0,2.3,0,1,1,0,0,0.037209,1,0,A
'Leipzig University',1,1,5,1,1,0,0,1,1,1,1,1,10,1,1,1,0,1,1,1,1,1,1,0,1,1,0,1,1,1,1,1,1,1,1,1,1,1,1,1,0,0,0,1,1,1,0,12.64,0,1,1,0,0,1,0,100,1,0,1,1,1,0,100,0,1,1,0,0,0.790146,0,0,A
'Scuola Normale Superiore di Pisa',1,1,4,1,1,0,0,0,0,0,1,0,0,0,1,1,0,1,1,9,0,0,0,1,0,1,0,1,1,1,1,1,1,1,1,0,1,1,1,1,0,1,0,1,1,1,0,14,0,1,1,0,0,0,0,75,1,0,0,0,1,0,100,0,1,1,0,0,-1.20889,0,0,A
'University of Venda',1,1,8,1,0,0,0,0,0,0,1,0,1,1,1,1,1,1,1,20,1,1,0,1,1,1,0,1,1,1,1,1,1,1,1,1,1,1,1,0,1,0,1,0,1,1,1,5.74,0,1,1,0,0,0,1,90,1,0,1,0,1,1,30.7,0,1,0,0,0,1.99811,0,0,A
'University of Victoria',1,1,6,1,0,0,0,1,0,0,0,0,1,0,1,1,1,1,1,0,1,1,0,0,0,1,0,1,1,1,1,1,1,0,1,1,1,0,1,1,0,1,0,0,1,1,1,15.43,0,1,1,1,0,0,0,100,1,0,1,1,1,1,100,0,1,1,0,0,-0.634579,0,0,A
'Northwestern University',1,1,6,1,0,0,0,1,0,0,1,0,0,1,1,1,1,1,1,0,1,1,0,1,1,1,0,1,1,1,1,1,1,1,1,1,1,1,1,1,0,0,1,0,1,1,1,13.19,0,1,1,1,0,1,0,75,1,0,1,1,1,1,97.2,0,1,1,0,0,-0.305604,23,0,A
'University of Bern',1,1,7,1,1,0,0,1,1,0,1,1,2,1,1,1,1,1,1,2,1,1,1,1,0,1,0,1,1,1,1,1,1,1,1,1,1,1,1,1,0,0,1,0,1,1,1,5.74,0,1,1,0,0,1,1,75,1,0,0,1,1,1,79.2,0,1,0,0,0,4.59436,0,0,A
'University of Muenster',1,1,2,1,1,0,0,1,0,0,1,0,1,0,1,1,1,1,1,1,1,1,1,1,0,1,0,1,0,1,1,1,1,1,1,1,1,1,1,1,0,0,1,1,1,1,1,21,0,1,1,0,0,0,0,100,1,0,1,1,1,0,94.1,0,1,1,0,0,-0.601029,1,0,A
'Seoul National University',1,1,20,1,0,0,0,0,0,0,1,1,7,1,1,1,1,1,1,1,1,1,1,0,1,1,0,1,1,1,1,1,1,1,1,1,0,1,1,0,1,0,1,1,1,1,1,15.43,0,1,1,0,0,0,0,75,1,0,0,0,1,1,52.9,0,1,0,0,0,1.50287,0,0,A
'Tohoku University',1,1,7,1,1,0,0,0,0,0,0,1,8,1,1,1,1,1,1,7,1,1,1,0,0,1,0,1,1,1,1,1,1,1,0,1,1,1,1,0,0,0,0,1,0,1,1,21,0,1,1,1,0,0,0,100,1,1,0,1,1,0,59.2,0,1,0,0,0.693147,-0.729928,0,0,A
'Loyola Marymount University',1,1,3,1,0,0,0,1,1,1,0,1,3,1,1,1,1,1,1,2,1,1,1,0,1,1,0,1,1,1,1,1,1,1,1,1,1,1,1,0,0,0,1,0,1,1,1,21,0,1,0,0,0,1,0,75,1,0,1,1,1,1,75,0,1,1,0,0,-0.0381555,0,0,A
'University of Galway',0,1,8,1,0,1,1,1,1,1,1,1,8,0,1,1,0,1,1,0,1,0,0,1,0,1,0,0,1,1,1,1,1,1,1,1,1,1,1,0,0,1,0,0,1,1,0,6.03,0,0,0,0,0,0,1,75,1,0,1,1,1,0,78,0,1,1,0,0,0.394642,7,0,A
'BRAC University',1,1,7,1,0,0,0,0,0,0,0,1,10,1,1,1,0,1,0,8,1,1,0,1,1,1,0,1,1,1,1,1,1,1,1,1,1,1,1,0,1,0,1,0,1,1,1,14.8,0,1,1,0,0,0,0,75,1,0,1,1,1,1,52,0,1,0,0,0,-0.0713231,1,0,A
'ETH Zurich',1,1,7,1,1,0,0,0,0,0,1,1,6,1,1,1,1,1,1,8,1,1,1,0,0,1,0,1,1,1,1,1,1,1,1,1,1,1,1,1,0,0,0,0,1,1,0,21,0,1,0,0,0,1,1,100,1,0,1,0,1,0,27.6,0,1,1,0,0,1.68421,0,0,A
'Khulna University of Engineering and Technology',1,1,6,0,0,0,0,0,0,0,1,1,10,1,1,1,1,1,1,20,1,1,1,1,1,1,0,1,1,1,1,1,1,1,1,0,1,1,1,1,0,1,1,0,1,1,1,13.3,0,1,0,0,0,1,0,75,1,0,1,0,1,0,98.5,0,1,0,0,0,-0.0623612,30,0,A
'University of New Mexico',1,1,5,1,0,1,0,0,0,0,1,1,10,0,1,1,1,1,1,20,1,1,1,0,0,1,0,1,1,1,1,1,1,1,1,1,1,1,1,0,1,0,0,0,1,1,0,2.41,0,1,0,0,0,1,0,75,1,0,1,0,1,0,98.4,0,1,1,0,0,-0.362988,0,0,A
'Technical University of Darmstadt',1,1,4,1,1,0,1,1,0,0,1,1,10,0,1,1,1,1,1,1,1,1,1,0,0,1,0,0,1,1,1,1,1,1,1,1,1,1,1,1,0,0,0,1,1,1,1,12.79,0,1,1,0,0,0,0,100,1,0,0,1,1,0,12,0,1,1,0,0,-0.796235,0,0,A
'Indian Institute of Technology BHU Varanasi',1,1,11,0,1,0,0,1,0,0,1,1,10,1,1,1,1,1,1,9,1,1,1,1,1,1,1,1,1,1,1,1,1,1,1,0,1,1,1,1,1,0,0,1,1,1,1,15.43,0,1,0,0,0,0,0,75,1,1,1,0,1,1,84.1,0,1,1,0,0.693147,0.292854,18,0,A
'Moi University',1,1,7,1,0,0,0,0,1,0,1,1,2,1,1,1,1,1,1,20,0,1,1,0,1,1,0,1,1,1,1,1,1,1,1,1,1,1,1,1,0,0,1,0,1,1,1,13.58,0,1,1,0,0,0,0,90,1,0,1,0,1,0,38.5,0,1,0,0,0,0.159626,0,0,A
'York University',1,1,3,1,0,0,0,1,1,1,0,1,4,0,1,1,0,1,1,0,1,1,0,0,1,1,0,1,1,1,1,1,1,1,1,1,1,1,1,0,0,1,1,0,0,1,1,15.43,0,1,1,0,0,1,1,90,1,0,1,1,1,1,14.6,0,1,1,0,0,0.345511,11,0,A
'University of Regensburg',1,1,3,1,1,0,0,1,0,0,1,0,1,0,1,1,1,1,1,3,1,1,1,0,1,1,0,1,0,1,1,1,1,1,1,1,1,1,1,1,0,0,1,0,0,1,1,21,0,1,1,0,0,1,0,75,1,0,1,1,1,0,14.3,0,1,1,0,0,-0.704088,1,0,A
'Lodz University of Technology',1,1,2,1,1,0,0,1,1,1,1,0,0,1,1,1,1,1,1,0,1,1,0,1,0,1,0,1,1,1,1,1,1,1,1,0,1,0,1,1,0,1,1,0,1,1,1,15.43,0,1,1,0,0,0,0,100,1,0,1,1,1,0,77.5,0,1,0,0,0,-0.315535,10,0,A
'Georgia Institute of Technology',1,1,7,1,0,1,0,1,1,1,0,0,0,1,1,1,1,1,1,0,1,1,0,0,1,1,0,1,1,1,1,1,1,1,1,1,1,0,1,1,0,0,1,0,1,1,1,21,0,1,1,1,0,0,0,75,1,1,0,1,1,1,85.7,0,1,1,0,0.693147,-0.275565,15,0,A
'University of Cincinnati',0,1,4,1,0,0,0,1,1,3,1,1,6,1,1,1,1,1,1,15,1,1,0,1,1,1,0,1,1,1,1,1,1,1,1,1,1,1,1,1,0,0,1,0,1,1,1,12.63,0,1,0,0,0,1,1,75,1,0,1,0,1,1,69.2,0,1,1,0,0,-0.15251,4,0,A
'University of Nottingham',1,1,6,1,0,0,1,1,0,0,1,1,2,0,0,1,1,1,1,3,1,1,0,0,0,1,0,0,1,1,1,1,1,1,1,1,1,1,1,0,0,1,1,0,1,1,1,15.41,0,1,1,0,0,0,0,75,1,0,1,1,0,1,100,0,1,1,0,0,-0.622853,3650,1,A
'FAST National University Pakistan',1,1,13,1,0,0,0,1,1,1,1,0,0,1,1,1,1,1,1,0,0,0,0,1,1,1,1,1,1,1,1,1,1,1,1,1,1,1,1,0,1,1,1,0,1,1,1,21,0,1,1,0,0,1,0,75,1,7,1,0,1,0,20.6,0,0,0,0,2.07944,-0.0146189,134,0,A
'University of Cape Town',1,1,1,1,0,0,1,1,0,0,1,0,0,1,1,1,1,1,1,8,1,1,0,1,1,1,0,1,1,1,1,1,1,1,1,1,1,1,1,0,0,1,0,0,1,1,0,2.73,0,1,1,1,0,0,0,75,1,0,1,1,1,0,100,0,1,0,0,0,2.96384,0,0,A
'Auckland University of Technology',1,1,4,1,0,0,0,1,0,0,1,1,7,0,0,1,0,1,1,4,1,0,0,1,0,1,0,1,1,1,1,1,1,1,1,1,1,1,1,1,0,1,1,1,1,1,1,20.37,0,1,0,0,0,1,0,90,1,0,1,1,1,1,94.3,0,1,0,0,0,-0.954311,3650,1,A
'Hong Kong University of Science and Technology',1,1,2,1,1,0,1,1,1,0,1,1,10,0,1,1,1,1,1,17,1,1,1,1,1,1,0,1,1,1,1,1,1,1,1,0,1,1,1,1,0,0,0,1,1,1,1,15.23,0,1,1,0,0,0,1,90,1,0,1,1,1,1,100,0,1,1,0,0,-0.445184,0,0,A
'University of Queensland',1,1,4,1,0,0,1,1,1,1,0,0,0,0,0,1,1,1,1,1,1,1,0,1,0,1,0,1,1,1,1,1,1,1,1,1,1,1,1,1,0,1,1,0,1,1,1,11.53,0,1,1,0,0,0,1,100,1,1,1,1,1,1,94.4,0,1,1,0,0.693147,-0.36071,3650,1,A
'PSL University',1,1,6,1,1,0,0,1,1,0,1,1,7,1,1,1,1,1,1,1,1,1,1,0,0,1,0,1,1,1,1,1,1,1,1,0,1,1,1,0,0,0,0,1,1,1,1,21,0,1,1,0,0,0,1,75,1,0,1,0,1,0,95.3,0,1,1,0,0,-0.210375,13,0,A
'Indiana University Bloomington',0,1,9,1,0,0,0,1,1,1,1,1,2,1,1,1,1,1,1,0,1,1,0,1,0,1,0,1,1,1,1,1,1,1,1,1,1,1,0,0,0,1,0,0,1,0,0,11.22,0,1,0,1,0,1,0,100,1,0,1,1,1,1,61.9,0,1,1,0,0,0.290613,56,0,A
'University of Kerala',0,1,13,1,0,0,1,1,1,1,1,1,3,0,1,1,1,1,1,5,1,1,1,0,0,1,0,1,1,1,1,1,1,1,1,0,1,1,1,1,1,0,0,1,1,0,1,12.63,0,1,0,0,0,0,0,75,1,2,1,0,0,0,95.9,0,1,0,0,1.09861,0.00574895,4,0,A
'University of Utah',1,1,8,1,0,0,0,1,0,0,1,1,3,1,1,1,1,1,1,1,0,0,1,0,1,1,0,1,1,1,1,1,1,1,1,1,1,0,1,0,0,0,1,0,1,1,1,13.47,0,1,0,1,0,0,1,75,1,0,1,1,1,0,68.8,0,1,1,0,0,0.278805,6,0,A
'IIIT Gwalior',1,1,9,1,0,0,0,1,0,0,0,1,10,1,1,1,1,1,1,1,1,1,1,1,1,1,0,1,1,1,1,1,1,1,1,0,1,0,1,0,1,0,1,1,1,1,1,15.43,0,1,1,0,0,1,0,75,1,0,0,0,1,1,100,0,1,0,0,0,-0.0529105,0,0,A
'University of Salzburg',1,1,4,1,1,1,0,0,1,1,1,1,5,1,1,1,0,1,1,12,1,1,1,0,0,1,0,1,1,1,1,1,1,1,1,1,1,1,1,1,0,0,0,0,1,1,0,9.07,0,1,1,0,0,1,0,90,1,0,1,1,1,0,84.2,0,1,0,0,0,0.247934,12,0,A
'University of Rochester',1,1,6,1,0,0,0,1,0,0,1,0,0,0,0,1,1,1,1,0,1,1,0,0,1,1,0,1,1,1,1,1,1,1,1,1,1,1,1,0,0,1,1,0,1,1,1,21,0,1,1,1,0,0,0,75,1,0,1,1,1,1,86.4,0,1,1,0,0,-0.888147,3650,1,A
'University of Girona',1,1,5,1,0,0,0,0,1,1,1,0,0,1,1,1,1,1,1,5,1,1,1,1,0,1,0,1,1,1,1,1,1,1,1,0,1,1,1,1,0,0,1,0,0,1,1,15.24,0,1,1,0,0,0,0,75,1,0,1,1,0,0,36.4,0,1,1,0,0,-1.43119,10,0,A
'Dibrugarh University',1,1,9,0,0,0,0,0,0,0,1,1,10,1,1,1,1,1,1,0,0,0,0,0,0,1,0,1,1,1,1,1,1,1,1,1,1,1,1,1,0,1,1,1,1,1,1,21,0,1,0,0,0,0,0,75,1,0,1,1,1,1,100,0,1,1,0,0,-0.139433,742,0,A
'Maharaja Sayajirao University of Baroda',1,1,11,1,0,0,0,1,1,1,1,1,2,1,1,1,1,1,1,5,0,0,1,0,1,1,1,1,1,1,1,1,1,1,1,0,1,1,1,1,0,0,1,1,1,1,1,21,0,1,1,0,0,0,0,75,1,4,1,1,1,0,15.3,0,1,0,0,1.60944,-0.446418,4,0,A
'Rutgers University',0,1,4,1,0,0,0,1,1,1,1,1,10,1,1,1,1,1,1,14,1,1,1,1,0,1,0,1,1,1,1,1,1,1,1,1,1,0,1,0,0,0,1,0,1,1,1,9.74,0,1,0,0,0,0,0,90,1,0,0,1,1,1,100,0,1,1,0,0,3.57415,0,0,A
'University of Oxford',1,1,3,1,0,0,0,0,0,0,1,0,0,0,1,1,1,1,1,9,0,0,1,1,0,1,0,1,1,1,1,1,1,1,1,1,1,0,1,0,0,0,0,0,1,1,1,5.47,0,1,1,0,0,1,0,100,1,0,1,1,1,1,90.9,0,1,1,0,0,-0.794538,1,0,A
'University of Alberta',0,1,5,1,1,0,0,1,0,0,1,1,8,0,0,1,1,1,1,1,1,1,0,0,1,1,0,1,1,1,1,1,1,1,1,1,1,1,1,1,0,1,0,0,1,1,1,14.45,0,1,0,1,0,0,1,90,1,2,1,1,1,1,50,0,1,0,0,1.09861,0.342818,3650,1,A
'Sri Lanka Institute of Information Technology',1,1,1,1,0,0,0,1,1,1,1,1,3,0,0,1,0,1,1,0,1,1,0,1,0,1,0,1,1,1,1,1,1,1,1,1,1,1,1,1,1,1,1,1,1,1,1,21,0,1,0,0,0,1,1,75,1,0,1,1,1,1,82.2,0,1,1,0,0,-1.01981,3650,1,A
'VSB - Technical University of Ostrava',1,1,7,1,0,1,0,1,1,1,1,1,6,1,1,1,1,1,1,0,1,1,0,1,0,1,0,1,1,1,1,1,1,1,1,1,1,1,1,1,0,0,1,0,1,1,1,16.57,0,1,1,0,0,0,0,75,1,0,1,0,1,0,94.1,0,1,0,0,0,0.387036,0,0,A
'Air University',1,1,9,0,0,0,0,1,1,1,1,1,10,1,1,1,1,1,0,11,1,1,1,1,0,1,0,1,1,1,1,1,1,1,1,1,1,1,1,1,0,1,1,0,1,1,1,6.38,0,1,1,0,0,1,0,75,1,0,1,0,1,1,75.9,0,1,0,0,0,0.180261,270,0,A
'Chittagong University of Engineering and Technology',1,1,10,0,0,0,0,0,0,0,1,0,0,1,1,1,1,1,1,3,1,1,0,0,0,1,0,1,1,1,1,1,1,1,1,0,1,0,1,1,0,1,1,0,1,1,1,5.33,0,1,1,0,0,0,0,75,1,0,1,1,1,0,100,0,1,0,0,0,-0.941764,0,0,A
'University of Lucknow',1,1,13,1,1,1,0,1,1,1,1,0,0,1,1,1,1,1,1,2,0,0,1,1,0,1,0,1,1,1,1,1,1,1,1,1,1,1,1,1,1,0,1,0,1,1,1,12.63,0,1,1,0,0,0,0,75,1,0,1,0,0,1,100,0,1,0,0,0,0.031331,453,0,A
'Durban University of Technology',1,1,10,1,0,0,0,1,0,0,1,0,0,1,1,1,1,1,1,6,1,1,1,1,1,1,1,1,1,1,1,1,1,1,1,1,1,1,1,0,0,0,1,0,1,1,1,4.48,0,1,1,1,0,0,0,90,1,2,1,1,0,0,23.1,0,1,0,0,1.09861,1.53796,7,0,A
'Pepperdine University',1,1,5,1,0,0,0,1,1,1,0,0,1,1,1,1,1,1,1,1,1,1,0,0,1,0,1,1,1,1,1,1,1,1,1,1,1,0,1,0,0,0,1,0,1,1,1,21,0,0,0,0,0,0,1,75,1,0,1,1,1,1,78.6,0,1,1,0,0,-0.0103956,1,0,A
'Denison University',1,1,6,1,0,0,0,0,1,1,1,0,0,1,1,1,1,1,1,6,1,1,1,1,1,1,0,1,1,1,1,1,1,1,1,1,1,1,0,0,0,0,1,0,0,1,1,8.36,0,1,0,1,0,0,0,75,1,0,1,1,1,1,97.7,0,1,0,0,0,-0.00293772,1,0,A
'Samarkand State University',1,1,8,1,1,0,1,1,1,2,1,1,10,1,1,1,0,1,1,0,1,1,1,0,0,1,0,1,1,1,1,1,1,1,1,1,1,0,1,0,1,0,1,0,1,1,1,14.22,0,1,0,0,0,1,0,75,1,2,1,1,1,1,94.1,0,1,0,0,1.09861,0.139851,3,0,A
'Estonian University of Life Sciences',1,1,4,1,1,0,0,0,0,0,1,1,4,0,1,1,1,1,1,20,1,1,1,1,1,1,0,1,1,1,1,1,1,1,1,1,1,0,1,0,0,0,1,1,0,1,1,15.43,0,1,1,0,0,0,0,75,1,0,1,0,1,1,82.4,0,1,1,0,0,-0.299413,11,0,A
'Deakin University',1,1,6,1,0,0,0,1,0,0,1,0,0,0,0,1,1,1,1,0,0,0,0,0,0,1,0,1,1,1,1,1,1,1,1,1,1,1,1,0,0,1,0,1,1,1,1,12.05,0,1,1,1,0,0,0,75,1,1,1,1,1,1,14.3,0,1,1,0,0.693147,-0.415133,3650,1,A
'Cardiff University',1,1,6,1,1,0,0,1,1,1,1,1,3,1,1,1,0,0,1,0,0,1,0,1,0,1,0,1,1,1,1,1,1,1,1,1,1,1,1,1,1,0,1,0,1,1,1,18.73,0,1,0,1,0,0,0,90,1,0,1,1,1,1,60,0,1,1,0,0,-1.02054,0,0,A
'SGH Warsaw School of Economics',1,1,4,1,1,0,0,1,1,1,1,0,0,1,1,1,1,1,1,0,1,1,0,1,0,1,0,1,1,1,1,1,1,1,1,0,1,1,1,1,0,0,1,1,1,1,1,13.78,0,1,0,0,0,0,0,100,1,0,1,0,1,0,75.8,0,1,1,0,0,-0.200709,0,0,A
'NIT Agartala',1,1,10,0,0,0,0,0,0,0,1,1,10,1,1,1,1,1,1,6,1,1,1,0,0,1,0,1,1,1,1,1,1,1,1,0,1,1,1,1,1,0,0,0,1,1,1,15.43,0,1,0,0,0,0,0,75,1,0,1,1,1,0,96.7,0,1,1,0,0,0.102374,0,0,A
'Autonomous Technological Institute of Mexico',1,1,5,1,0,1,1,1,1,1,1,0,0,1,1,1,1,1,1,1,0,0,0,0,0,1,0,1,1,1,1,1,1,1,1,0,1,1,1,0,1,0,1,0,1,1,1,3.72,0,1,1,1,0,0,0,75,1,0,1,0,1,1,88.9,0,1,0,0,0,0.169583,36,0,A
'Michigan State University',1,1,3,1,0,0,0,0,0,0,1,0,0,1,1,1,1,1,1,0,0,0,0,1,0,1,0,1,1,1,1,1,1,1,1,1,1,1,1,1,0,0,1,1,1,1,1,15.43,0,1,1,0,0,0,0,75,1,0,0,0,1,1,78.3,0,1,1,0,0,-0.406285,13,0,A
'Bangladesh University of Professionals',1,1,8,0,0,0,0,1,0,0,1,1,9,1,1,1,1,1,1,1,1,1,1,1,0,1,0,1,1,1,1,1,1,1,1,1,1,1,1,1,1,0,1,0,1,1,1,15.43,0,1,0,0,0,1,0,75,1,1,1,0,1,0,34.8,0,1,0,0,0.693147,-1.05843,7,0,A
'SRM Institute of Science and Technology',1,1,9,1,0,1,0,1,1,1,1,1,10,1,0,1,1,1,1,0,1,1,0,1,0,1,0,1,1,1,1,1,1,1,1,1,1,0,1,1,1,1,0,0,1,1,0,1,0,1,1,0,1,1,0,90,1,0,1,1,1,1,45.7,0,1,1,0,0,-0.0139671,3650,1,A
'Texas Tech University',1,1,3,1,0,1,0,1,0,0,1,0,0,0,1,1,1,1,1,2,0,0,0,1,1,1,0,1,1,1,1,1,1,1,1,1,1,1,1,0,0,1,0,0,1,1,0,1.66,0,1,1,0,0,1,0,100,1,2,1,1,1,0,97.8,0,1,1,0,1.09861,0.403724,106,0,A
'University of Luxembourg',1,1,4,1,1,0,0,1,0,0,1,0,0,1,1,1,1,1,1,1,1,1,1,1,0,1,0,1,1,1,1,1,1,1,1,1,1,1,1,0,0,0,0,0,1,1,1,5.04,0,1,1,0,0,1,0,100,1,1,0,1,0,0,47.9,0,1,1,0,0.693147,0.140753,1,0,A
'Indian Institute of Technology Tirupati',1,1,10,0,0,0,0,0,1,1,1,1,6,1,1,1,1,1,1,20,1,1,1,1,0,1,0,1,1,1,1,1,1,1,1,1,1,1,1,1,1,0,1,0,1,1,1,18.24,0,1,1,0,0,0,0,75,1,0,1,1,1,1,100,0,1,0,0,0,-0.906569,101,0,A
'University of Navarra',1,1,3,1,1,0,0,1,1,1,1,0,0,1,1,1,1,1,1,4,1,1,0,0,1,1,0,1,1,1,1,1,1,1,1,1,1,1,0,0,0,0,1,0,1,1,1,21,0,1,1,0,1,0,0,100,1,0,1,1,1,1,30.4,0,1,1,0,0,-0.538022,0,0,A
'Chalmers University of Technology',1,1,3,0,1,0,0,0,1,1,1,1,7,1,1,1,1,1,0,6,1,0,1,0,0,1,0,1,1,1,1,1,1,0,1,0,1,1,1,1,0,1,1,0,0,1,1,21,0,1,0,0,0,0,0,90,1,0,1,1,1,1,41.4,0,1,1,0,0,-0.0522704,0,0,A
'La Trobe University',1,1,7,1,0,0,0,1,1,1,1,0,0,0,1,1,1,1,1,0,0,0,0,0,0,1,0,1,1,1,1,1,1,1,1,1,1,1,1,0,0,1,1,1,1,1,1,15.52,0,1,1,0,0,1,1,75,1,8,1,1,1,0,22.2,0,1,1,0,2.19722,0.0168291,368,0,A
'University of Delhi',1,1,11,1,1,0,0,1,0,0,1,1,10,1,1,1,1,1,1,2,1,1,1,1,0,1,1,1,1,1,1,1,1,1,1,1,1,1,1,1,0,0,0,1,1,1,0,9.59,0,1,0,0,0,0,0,75,1,0,0,0,1,0,34.8,0,1,0,0,0,-0.655311,0,0,A
'Indian Institute of Technology Gandhinagar',1,1,5,1,1,0,0,0,0,0,1,0,1,1,1,1,1,1,1,0,0,0,0,1,1,1,0,1,1,1,1,1,1,1,1,1,1,0,1,1,0,0,0,0,1,1,1,8.06,0,1,0,1,0,0,0,75,1,1,1,1,1,1,81.5,0,1,0,0,0.693147,-0.243391,0,0,A
'NED University of Engineering and Technology',1,1,8,1,0,0,0,1,1,0,0,1,4,1,1,1,1,1,1,3,0,0,0,1,1,1,0,1,1,1,1,1,1,1,1,1,1,1,1,1,0,0,0,0,1,1,1,12.63,0,1,1,0,0,1,0,75,1,0,1,0,1,1,37.1,0,1,0,0,0,0.644648,0,0,A
'Westminster International University in Tashkent',1,1,9,0,0,0,0,1,1,1,1,1,10,0,1,1,0,1,1,4,1,1,1,1,1,1,0,1,1,1,1,1,1,1,0,1,1,1,1,1,1,1,0,0,1,1,0,12.63,0,1,1,0,1,0,0,90,1,0,1,1,1,1,32.4,0,1,0,0,0,2.21786,0,0,A
'University of Massachusetts Amherst',1,1,3,1,0,0,0,1,0,0,1,1,5,1,1,1,1,1,1,20,1,1,0,0,1,1,0,1,1,1,1,1,1,1,1,1,1,1,1,0,0,0,0,0,1,1,1,18.26,0,1,1,0,0,0,0,90,1,1,1,0,1,1,100,0,1,1,0,0.693147,0.28647,0,0,A
'Louisiana State University',1,1,5,1,0,0,0,1,1,1,1,0,0,1,1,1,1,1,1,20,1,1,1,1,1,1,0,1,1,1,1,1,1,1,1,1,0,1,0,0,0,0,1,0,1,1,1,16.3,0,1,1,1,0,0,0,90,1,0,0,1,1,1,100,0,1,1,0,0,0.68961,0,0,A
'Kyoto University',1,1,4,1,1,0,0,0,0,0,1,0,1,1,1,1,0,1,1,5,1,1,1,0,0,1,0,1,1,1,1,1,1,1,0,1,1,1,1,0,0,0,1,1,1,1,1,18.77,0,1,1,0,0,0,1,90,1,0,1,1,1,0,76.7,0,1,0,0,0,-1.82115,0,0,A
'American International University-Bangladesh',1,1,9,1,0,0,0,0,1,1,1,1,10,1,1,1,1,1,1,6,1,1,1,1,0,1,0,1,1,1,1,1,1,1,1,0,1,0,1,1,0,0,1,0,1,1,1,5.59,0,1,1,0,0,1,0,90,1,0,1,1,1,0,100,0,1,0,0,0,-1.05485,13,0,A
'University of the Western Cape',1,1,5,0,0,0,0,0,0,0,1,1,3,1,0,1,1,1,1,0,0,0,0,0,0,1,0,1,1,1,1,1,1,1,1,1,1,1,1,1,0,1,1,1,1,1,1,8.19,0,1,1,0,0,0,1,90,1,0,1,1,1,1,100,0,1,0,0,0,-0.752674,3650,1,A
'Adam Mickiewicz University',1,1,7,1,1,0,0,1,0,0,1,0,1,0,1,1,1,1,1,5,1,1,1,0,0,1,0,1,1,1,1,1,1,1,1,0,0,0,1,1,0,0,1,0,1,1,1,15.95,0,1,1,0,0,0,0,75,1,0,1,1,1,0,68.8,0,1,1,0,0,-1.18542,0,0,A
'Universite libre de Bruxelles',1,1,7,1,0,1,0,0,0,0,1,1,2,0,1,1,1,1,1,1,1,1,0,0,0,1,0,1,1,1,1,1,1,0,1,1,1,1,1,1,1,0,0,0,1,0,1,20.5,0,1,1,0,0,0,0,75,1,0,1,1,1,0,46.4,0,1,1,0,0,-0.49894,0,0,A
'University of Poitiers',1,1,9,1,1,0,0,0,0,0,1,0,0,0,1,1,1,1,1,0,0,0,0,1,1,1,1,0,1,1,1,1,1,1,1,1,1,1,1,1,0,0,0,1,0,1,0,13.55,0,1,0,0,0,0,0,90,1,0,1,1,1,0,90.9,0,1,1,0,0,-0.377694,0,0,A
'Obuda University',1,1,7,1,1,1,1,1,0,0,1,1,4,0,0,1,1,1,1,12,1,1,0,0,0,1,0,1,1,1,1,1,1,1,1,0,1,1,1,0,1,1,1,0,0,1,1,1.14,0,1,1,1,0,0,0,90,1,0,0,0,1,0,17.4,0,1,1,0,0,0.536615,3650,1,A
'Victoria University',1,1,11,1,0,0,0,1,1,1,1,1,2,1,1,1,0,1,1,0,1,0,0,0,1,1,0,0,1,0,1,1,1,1,1,1,1,1,1,1,0,1,1,1,1,1,1,15.13,0,1,0,1,0,0,0,90,1,0,1,1,1,1,82.8,0,1,1,0,0,-0.107008,8,0,A
'Yale University',1,1,4,1,0,0,0,0,0,0,1,0,0,0,1,1,1,1,0,5,1,1,1,0,0,1,0,1,1,1,1,1,1,1,1,1,1,1,1,0,0,0,0,0,1,1,0,21,0,1,1,0,0,0,0,100,1,0,1,1,1,0,30.8,0,1,1,0,0,-1.41559,5,0,A
'Karlsruhe Institute of Technology',0,1,7,1,1,1,0,1,0,1,1,1,10,0,1,1,1,1,1,3,1,1,1,0,0,1,0,1,0,1,1,1,1,0,0,1,1,1,1,1,0,0,1,1,0,1,1,21,0,1,0,0,0,1,0,90,1,0,1,1,1,1,69.2,0,1,1,0,0,-0.892504,0,0,A
'National University of Singapore',1,1,8,1,0,1,0,0,0,0,0,0,0,1,1,1,1,1,1,2,0,0,0,0,0,1,0,1,1,1,1,1,1,1,1,1,1,0,1,0,0,0,1,0,1,1,1,12.63,0,1,1,0,0,0,0,75,1,0,0,1,1,1,51.6,0,1,0,0,0,0.106244,17,0,A
'University of Johannesburg',1,1,8,1,0,0,0,0,0,0,1,0,0,0,1,1,1,1,1,0,0,0,0,1,0,1,0,1,1,1,1,1,1,1,1,1,1,1,1,1,0,0,1,0,1,1,1,15.43,0,1,1,1,0,0,0,90,1,1,1,1,1,1,39.1,0,1,0,0,0.693147,-0.0731826,4,0,A
'Sofia Medical University',1,1,6,1,1,0,0,1,1,1,1,1,8,1,1,1,0,1,1,3,1,1,1,0,0,1,0,1,1,1,1,1,1,1,1,0,1,1,1,0,0,0,0,0,1,1,1,11.9,0,1,1,0,0,1,0,90,1,0,1,1,1,1,54.2,0,1,0,0,0,0.028406,20,0,A
'University of Pecs',1,1,9,1,1,0,0,1,1,1,0,1,7,0,1,1,1,1,0,0,1,1,1,0,0,1,1,1,1,1,1,1,1,1,1,0,1,1,1,1,1,1,0,0,0,1,0,5.02,0,1,0,1,0,1,1,75,1,0,1,0,1,0,9.2,0,1,0,0,0,0.0905662,36,0,A
'University of Southern California',1,1,5,1,0,0,0,0,0,0,1,0,0,1,1,1,1,1,1,2,1,1,0,0,0,1,1,1,1,1,1,1,1,1,1,1,1,1,0,0,0,0,1,0,1,1,1,21,0,1,1,0,0,1,1,90,1,0,1,1,1,1,95,0,1,1,0,0,-0.323005,5,0,A
'University of the Sunshine Coast',1,1,4,1,0,0,0,1,0,0,0,0,0,0,0,1,1,1,1,12,1,1,0,0,0,1,0,0,1,1,1,1,1,1,1,1,1,0,1,0,0,1,1,1,1,1,1,18.88,0,1,1,0,0,1,0,100,1,0,1,1,0,1,37.5,0,1,1,0,0,0.85957,3650,1,A
'University of Zurich',1,1,3,0,1,0,0,1,1,1,1,1,7,0,1,1,1,1,1,11,1,1,1,0,1,1,0,1,1,1,1,1,1,1,1,1,1,1,1,1,0,0,0,0,1,1,1,18.73,0,1,0,0,0,1,1,75,1,0,1,1,1,1,67.9,0,1,1,0,0,0.645136,0,0,A
'University of St Andrews',1,1,1,1,0,0,0,1,0,0,1,0,0,0,1,1,0,1,1,0,0,1,0,1,0,1,0,0,1,1,1,1,1,1,1,1,1,1,1,0,0,1,1,0,1,1,1,16.24,0,1,0,1,0,0,1,100,1,0,1,0,1,1,91.7,0,1,1,0,0,0.446778,39,0,A
'University of Miskolc',1,1,8,1,1,0,1,1,1,1,1,1,10,0,0,1,1,1,1,0,1,1,0,1,1,1,0,1,1,1,1,1,1,1,1,0,1,1,1,0,1,1,1,0,1,1,1,5.87,0,1,1,0,0,0,1,90,1,0,1,0,1,1,22,0,1,1,0,0,0.787943,3650,1,A
'Aalto University',1,1,7,1,1,0,0,1,0,0,0,1,8,1,1,1,1,1,1,9,1,1,1,0,0,1,0,1,1,1,1,1,1,0,1,1,0,0,1,1,0,0,1,0,0,1,1,13.77,0,1,1,0,0,1,0,100,1,0,1,1,1,0,89.2,0,1,0,0,0,-1.35639,0,0,A
'Virginia Tech',1,1,2,1,0,1,0,1,0,0,0,0,0,1,1,1,1,1,0,0,1,1,0,0,0,1,0,1,1,1,1,1,1,1,1,1,1,1,1,0,0,0,0,1,1,1,1,21,0,1,1,0,0,0,0,90,1,0,1,0,1,1,40,0,1,1,0,0,-0.205751,1,0,A
'Central University of Technology Free State',1,1,8,1,0,0,0,0,1,1,1,1,10,1,0,1,1,1,1,12,1,1,0,1,0,1,0,1,1,1,1,1,1,1,1,1,1,1,1,1,1,0,1,0,1,1,1,12.63,0,1,1,0,0,1,0,75,1,0,0,1,1,0,98.3,0,1,0,0,0,-0.856456,3650,1,A
'Howard University',0,1,3,1,0,0,0,1,1,1,1,0,0,1,1,1,1,1,1,18,1,1,0,1,1,1,0,1,1,1,1,1,1,1,1,1,1,1,1,0,0,0,1,0,1,1,1,1,0,1,0,0,0,0,0,75,1,0,1,1,1,1,95.7,0,1,1,0,0,0.244001,0,0,A
'University of Jaen',1,1,5,1,1,0,0,0,0,0,0,1,9,0,1,1,1,1,1,20,1,1,1,0,0,1,0,1,1,1,1,1,1,1,1,1,1,0,1,1,0,0,1,1,0,1,1,9.56,0,1,1,0,0,0,0,100,1,0,0,0,1,0,100,0,1,0,0,0,0.475171,46,0,A
'University of South-Eastern Norway',0,1,0,1,1,0,0,0,1,1,0,1,6,1,1,1,1,1,0,1,1,1,1,0,0,1,0,1,1,1,1,1,1,1,1,1,1,1,1,1,0,0,1,0,0,1,1,15.33,0,1,0,0,0,1,1,90,1,0,1,1,1,1,87.5,0,1,1,0,0,0.830642,4,0,A
'University of Technology Sydney',1,1,3,1,0,0,1,1,0,0,1,0,0,1,0,1,0,1,1,0,1,1,0,0,1,1,0,1,1,1,1,1,1,1,1,1,1,1,1,1,0,1,1,0,1,1,1,21,0,1,1,0,0,0,0,100,1,0,1,1,1,1,72.4,0,1,1,0,0,-0.0452522,3650,1,A
'Stanford University',0,1,4,1,0,0,0,0,1,1,1,0,0,0,1,1,0,1,1,11,1,1,1,1,1,1,0,1,1,1,1,1,1,1,1,1,1,1,1,0,0,0,0,0,1,1,0,18.88,0,1,0,0,0,0,0,100,1,0,1,1,1,1,100,0,1,1,0,0,-0.0402272,5,0,A
'University of KwaZulu-Natal',1,1,20,1,0,0,0,0,0,0,0,1,3,1,0,1,1,1,1,3,1,1,0,0,0,1,0,1,1,1,1,1,1,1,1,1,1,1,1,0,0,1,1,0,1,1,1,5.74,0,1,1,1,0,1,0,90,1,2,1,0,1,0,44.4,0,1,1,0,1.09861,0.759317,3650,1,A
'Indian Institute of Technology Ropar',1,1,6,0,0,0,0,1,0,0,1,1,10,1,1,1,1,1,1,20,1,1,1,1,1,1,0,1,1,1,1,1,1,1,1,1,1,1,1,1,0,0,0,0,1,1,1,21,0,1,1,0,0,1,0,75,1,1,1,0,1,1,97.4,0,1,1,0,0.693147,-0.144322,5,0,A
'San Jose State University',1,1,5,1,0,0,0,1,1,1,0,1,2,1,1,1,1,1,1,0,1,1,0,0,0,1,0,1,1,1,1,1,1,1,1,1,1,1,1,0,0,0,1,0,0,1,1,19.8,0,1,1,0,0,0,0,75,1,0,1,0,0,1,87.5,0,1,1,0,0,1.17126,0,0,A
'Lithuanian University of Health Sciences',1,1,5,1,1,0,0,0,1,1,0,0,0,0,1,1,0,1,1,4,1,0,0,0,1,1,0,1,1,1,1,1,1,1,1,1,1,0,1,0,0,0,1,0,1,1,1,21,0,1,1,0,0,0,0,75,1,0,1,1,1,1,77.8,0,1,1,0,0,0.319681,0,0,A
'University of Montpellier',1,1,8,1,1,0,0,1,0,0,1,1,10,1,1,1,1,1,1,0,1,0,1,0,0,1,0,1,1,1,1,1,1,1,1,0,1,1,1,0,0,0,1,1,0,1,1,21,0,1,1,0,0,0,0,90,1,0,1,0,1,0,2.1,0,1,1,0,0,-0.928878,0,0,A
'University of Dar es Salaam',1,1,7,0,0,0,0,0,1,1,1,1,7,1,1,1,0,1,1,12,0,0,1,1,1,1,0,1,1,1,1,1,1,1,1,1,1,0,1,1,1,0,1,0,1,1,1,12.63,0,1,1,0,0,0,0,75,1,0,1,0,1,1,97,0,1,0,0,0,1.60893,0,0,A
'Iowa State University',1,1,9,1,0,0,0,0,0,0,1,0,1,0,0,1,1,1,1,20,1,1,0,0,1,1,0,1,1,1,1,1,1,1,1,1,0,0,1,0,0,1,1,0,1,1,1,8.86,0,1,1,0,0,0,0,75,1,0,1,1,1,1,81.2,0,1,1,0,0,0.36022,3650,1,A
'University of Saskatchewan',1,1,6,1,1,0,0,1,0,0,0,0,0,0,1,1,0,1,1,1,0,0,1,1,0,1,0,1,1,1,1,1,1,1,1,1,1,1,1,0,0,0,0,0,1,1,1,17.4,0,1,1,0,0,0,0,75,1,0,1,1,1,1,100,0,1,1,0,0,-0.860802,42,0,A
'University of California, San Diego',1,1,7,1,0,0,0,1,1,1,1,1,2,0,1,1,0,1,1,8,1,1,0,1,1,1,0,1,1,1,1,1,1,1,1,1,1,1,1,0,0,0,1,0,1,1,1,14.18,0,1,0,0,0,0,0,75,1,0,0,1,1,1,89.3,0,1,1,0,0,2.63218,5,0,A
'University of Genoa',1,1,7,1,1,0,0,1,0,0,1,1,10,1,1,1,0,1,1,5,1,1,1,0,0,1,0,1,1,1,1,1,1,1,1,1,1,0,1,1,0,0,0,0,1,1,0,12.63,0,1,1,0,0,0,0,90,1,0,1,0,1,0,70,0,1,0,0,0,-1.29899,0,0,A
'National University of Sciences and Technology',1,1,8,1,1,0,0,1,1,1,1,1,10,1,1,1,0,1,1,20,1,1,1,1,1,1,0,1,1,1,1,1,1,1,1,1,1,1,1,0,0,0,1,0,1,1,1,15.43,0,1,1,0,0,1,0,75,1,0,1,1,1,1,84.2,0,1,0,0,0,0.0316569,150,0,A
'Grenoble Alpes University',1,1,1,1,0,0,0,1,1,1,1,1,6,1,1,1,1,1,1,0,1,1,0,1,0,1,0,1,1,1,1,1,1,1,1,1,1,1,1,1,0,0,0,1,1,0,0,21,0,0,1,1,0,0,1,75,1,0,1,1,1,0,73.1,0,1,1,1,0,-0.734642,0,0,A
'Memorial University of Newfoundland',1,1,4,1,0,0,0,0,1,1,1,0,0,0,1,1,1,1,1,0,1,1,0,1,1,1,0,1,1,1,1,1,1,1,1,1,1,1,1,1,0,0,0,0,1,1,1,12.63,0,1,1,0,0,0,0,100,1,0,1,0,1,1,52,0,1,1,0,0,-0.274736,4,0,A
'Brno University of Technology',1,1,2,1,0,1,0,0,0,0,1,1,2,1,1,1,1,1,0,1,1,1,1,1,0,1,0,1,1,1,1,1,1,1,1,0,1,1,1,1,0,0,1,0,1,1,1,17.39,0,1,0,0,0,1,0,75,1,1,1,1,1,1,38.5,0,1,1,0,0.693147,-1.23719,0,0,A
EPFL,1,1,4,1,1,0,0,0,0,0,1,1,10,0,1,1,1,1,0,2,1,1,1,0,0,1,0,1,1,1,1,1,1,1,1,0,1,1,1,0,0,0,1,0,1,1,1,16.1,0,1,1,0,0,0,0,100,1,0,1,1,1,1,85,0,1,1,0,0,0.962072,0,0,A
'University of Ljubljana',1,1,3,1,1,0,0,0,0,0,1,0,0,1,1,1,0,1,1,7,1,1,1,1,0,1,0,1,1,1,1,1,1,1,1,0,1,0,1,0,0,0,1,0,1,1,1,7.01,0,1,1,0,0,0,0,100,1,0,1,0,1,1,95.7,0,1,1,0,0,-1.3384,8,0,A
'Thammasat University',1,1,9,1,1,0,0,1,1,0,1,0,0,1,1,1,1,1,1,1,1,1,0,1,1,1,0,1,1,1,1,1,1,0,1,1,1,1,1,0,0,0,1,1,1,1,1,12.18,0,1,1,0,0,0,0,90,1,0,1,0,1,0,61.9,0,1,1,0,0,-1.18102,68,0,A
'University of California, Irvine',0,1,3,1,0,0,0,1,1,1,1,0,0,1,1,1,1,1,1,0,1,1,0,0,0,1,0,1,1,1,1,1,1,1,1,0,1,0,0,0,0,1,1,0,1,1,1,9.74,0,1,0,0,0,0,0,90,1,0,0,1,1,1,96.8,0,1,0,0,0,-0.584446,4,0,A
'University of Liverpool',1,1,4,1,0,0,1,1,0,0,1,0,0,0,1,1,1,1,1,0,1,1,0,1,0,1,0,1,1,1,1,1,1,1,1,1,1,1,1,0,0,0,0,0,1,1,0,14.6,0,1,0,1,0,0,1,100,1,0,1,1,1,1,83.3,0,1,1,0,0,-0.73149,0,0,A
'Royal University of Phnom Penh',1,1,9,1,0,0,0,0,0,0,1,0,0,1,1,1,0,1,1,0,1,1,0,1,0,1,0,1,1,1,1,1,1,1,1,1,1,1,1,0,0,0,1,0,1,1,1,19.08,0,1,1,0,0,0,0,75,1,0,1,1,1,1,97.1,0,1,0,0,0,-0.307527,0,0,A
'Seattle University',0,1,8,1,0,0,0,0,0,0,0,1,2,0,1,1,1,1,1,7,1,1,1,1,0,1,0,1,1,1,1,1,1,1,1,1,1,1,1,0,0,0,1,0,1,1,1,21,0,1,0,0,0,0,1,90,1,0,1,1,1,1,95.8,0,1,1,0,0,-0.893534,3650,1,A
'NIT Calicut',1,1,8,1,1,0,0,1,1,1,1,1,10,1,1,1,1,1,1,20,1,1,0,1,0,1,0,1,1,1,1,1,1,1,0,1,1,0,1,1,1,0,0,0,0,1,0,13.85,0,1,0,0,0,0,0,75,1,0,1,1,1,1,86.6,0,1,0,0,0,0.0266056,0,0,A
'Hong Kong Baptist University',1,1,8,0,0,0,0,0,1,1,1,0,0,1,1,1,1,1,1,0,0,0,0,0,0,1,0,1,1,1,1,1,1,1,1,0,1,1,1,0,0,0,1,1,1,1,1,9.28,0,1,0,0,0,0,0,100,1,0,1,1,1,1,81,0,1,1,0,0,-0.394014,0,0,A
'Indian Institute of Technology Hyderabad',1,1,20,0,0,0,1,1,1,0,1,1,6,1,1,1,1,1,1,1,1,1,0,0,1,1,0,1,1,1,1,1,1,1,1,1,1,1,1,1,1,0,0,0,1,1,1,12.23,0,1,1,0,0,0,0,75,1,0,1,0,1,1,91.4,0,1,0,0,0,-0.0889209,0,0,A
'University of Craiova',1,1,8,1,0,0,0,0,0,0,0,0,1,1,1,1,0,1,1,0,0,0,1,1,0,1,0,1,1,1,1,1,1,1,1,0,1,0,1,0,1,0,1,1,1,1,1,15.43,0,1,0,0,0,0,0,75,1,1,1,1,1,1,77.8,0,1,0,0,0.693147,-1.32962,26,0,A
'Eastern University Sri Lanka',1,1,8,1,0,0,0,0,0,0,1,0,1,1,1,1,0,1,1,2,1,1,1,0,0,1,0,1,1,1,1,1,1,1,1,1,1,0,1,1,0,0,1,0,1,1,1,8.23,0,1,1,0,0,0,0,75,1,0,1,0,1,1,100,0,1,0,0,0,-1.14512,11,0,A
'University of Santiago Chile',1,1,5,1,1,0,0,0,1,1,1,0,0,0,1,1,1,1,0,2,0,0,1,0,1,1,0,1,1,1,1,1,1,1,1,1,1,0,1,0,0,0,1,0,0,1,1,15.43,0,1,1,0,0,0,0,75,1,2,1,0,1,1,50.9,0,1,0,0,1.09861,-0.56194,0,0,A
'Dartmouth College',1,1,6,1,0,1,0,0,0,0,1,1,4,0,0,1,1,1,1,12,1,1,0,1,1,1,0,1,1,1,1,1,1,1,1,1,1,1,1,0,0,0,0,0,1,1,1,17.22,0,1,1,1,0,0,1,100,1,0,1,1,1,1,100,0,1,1,0,0,0.057554,3650,1,A
'Corvinus University of Budapest',1,1,8,1,1,0,0,1,1,2,0,1,4,0,1,1,0,1,1,4,1,1,1,1,1,1,0,1,1,1,1,1,1,1,1,0,1,0,1,1,0,0,1,0,1,1,1,21,0,1,1,1,0,0,1,90,1,2,1,1,1,0,84.1,0,1,0,0,1.09861,-0.116336,0,0,A
'Bharathidasan University',1,1,11,0,0,0,0,0,1,1,1,1,4,1,1,1,1,1,1,0,0,0,1,0,0,1,0,1,1,1,1,1,1,1,1,1,1,1,1,0,1,0,0,0,1,0,1,15.43,0,1,0,0,0,0,0,75,1,0,1,1,1,0,32,0,1,1,0,0,0.864295,0,0,A
'Mississippi State University',1,1,2,1,0,0,0,0,0,0,1,0,1,1,1,1,1,1,1,5,1,0,1,1,0,1,1,1,1,1,1,1,1,1,1,1,1,0,1,0,0,0,1,0,1,1,1,15.91,0,1,0,0,0,0,1,75,1,0,0,1,1,1,58.8,0,1,0,0,0,0.0165356,0,0,A
'Indian Institute of Technology Goa',1,1,4,1,0,0,0,0,0,0,1,0,0,1,1,1,1,1,1,0,0,0,1,1,1,1,0,1,1,1,1,1,1,1,1,1,1,0,1,1,1,0,0,0,1,1,1,12.63,0,1,1,0,0,0,1,90,1,1,0,0,1,1,95.2,0,1,0,0,0.693147,4.0003,22,0,A
'Brown University',0,1,4,1,0,0,0,0,0,0,0,0,1,0,1,1,0,1,1,1,1,1,1,1,1,1,0,1,1,1,1,1,1,1,1,1,1,1,1,0,0,0,1,0,1,1,1,21,0,0,0,0,0,0,0,75,1,0,1,1,1,1,64.8,0,1,1,0,0,-0.320934,5,0,A
'Mahidol University',1,1,10,1,1,0,0,0,0,0,1,0,0,1,1,1,0,1,1,4,1,1,0,0,0,1,0,1,1,1,1,1,1,1,1,0,1,1,1,1,0,0,1,0,1,1,1,6.1,0,1,1,0,0,0,0,90,1,0,1,1,1,1,21.6,0,1,0,0,0,-0.90872,19,0,A
'Smith College',0,1,5,1,0,0,0,0,0,0,1,0,0,0,1,1,1,1,1,0,0,0,0,0,1,1,0,1,1,1,1,1,1,1,1,1,1,0,1,0,0,0,1,0,1,1,1,15.85,0,1,0,0,0,0,0,100,1,0,1,1,1,1,16.7,0,1,1,0,0,-0.0317334,1,0,A
'Riga Stradins University',1,1,9,1,1,0,0,1,1,1,1,1,10,0,1,1,1,1,1,15,1,1,1,0,0,1,0,1,1,1,1,1,1,0,1,1,1,0,1,0,0,0,0,1,1,1,0,21,0,1,0,1,0,0,0,75,1,0,1,1,1,1,20,0,1,1,0,0,-0.788992,0,0,A
'University of Ostrava',1,1,9,1,1,0,0,0,1,1,1,0,1,0,0,1,1,1,1,0,0,0,0,0,0,1,1,1,1,1,1,1,1,1,1,0,0,1,1,0,0,1,1,1,1,1,1,8.06,0,1,1,0,0,0,1,75,1,0,0,1,1,0,99.3,0,1,0,0,0,0.267374,3650,1,A
'Sepuluh Nopember Institute of Technology',1,1,6,0,1,0,0,1,1,0,1,1,6,0,1,1,1,1,1,9,0,0,1,1,0,1,0,1,1,1,1,1,1,1,1,0,1,0,1,1,0,1,1,0,1,0,1,5.89,0,1,1,1,0,0,0,90,1,0,1,1,1,1,13.3,0,1,1,0,0,0.170658,3650,1,A
'Roma Tre University',1,1,10,1,1,0,0,0,1,0,0,0,0,1,1,1,1,1,1,0,0,0,0,0,0,1,0,1,1,1,1,1,1,1,1,1,1,0,1,1,0,0,1,0,1,1,0,21,0,1,1,0,0,0,0,75,1,0,1,0,1,0,60,0,1,1,0,0,-1.06325,0,0,A
'Universite Cote d\'Azur',1,1,8,1,1,0,0,1,1,0,0,1,2,1,0,1,1,1,1,0,1,1,0,1,0,1,0,1,1,1,1,1,1,1,1,1,1,1,1,1,1,0,0,1,1,1,1,16.1,0,0,1,0,0,0,0,75,1,0,0,1,1,0,86,0,1,0,0,0,1.13351,3650,1,A
'University of San Carlos',1,1,6,1,0,0,0,1,1,1,1,0,0,1,1,1,0,1,1,0,0,0,1,1,0,1,0,1,1,1,1,1,1,1,1,0,1,1,1,0,0,0,1,0,1,1,1,17.58,0,1,1,0,0,1,0,75,1,0,1,1,1,1,86,0,1,1,0,0,-1.63453,3,0,A
'American University',1,1,12,1,0,1,0,1,1,0,0,0,1,1,0,1,1,1,1,1,1,1,0,1,1,1,0,1,1,1,1,1,1,1,1,1,1,1,1,0,0,0,1,0,1,1,1,11.07,0,1,1,1,0,0,0,100,1,0,1,1,1,1,72.4,0,1,0,0,0,-0.0460277,3650,1,A
'Jimma University',1,1,1,1,0,0,0,0,0,0,1,1,4,0,1,1,1,1,1,1,0,1,0,0,1,1,0,1,1,1,1,1,1,0,1,1,1,1,1,0,0,1,1,0,1,1,1,9.74,0,1,1,0,0,0,0,90,1,0,1,0,1,0,30.9,0,1,0,0,0,-0.696997,0,0,A
'University of Twente',1,1,5,1,1,0,0,1,0,0,1,0,0,1,0,1,1,1,1,17,1,1,1,1,1,1,0,1,1,1,1,1,1,1,1,1,1,1,1,1,0,0,1,0,1,1,1,15.83,0,1,0,0,0,0,0,100,1,0,1,1,1,0,40,0,1,0,0,0,0.0541834,3650,1,A
'Polytechnic University of Bari',1,1,3,1,1,0,0,0,1,0,1,1,10,0,1,1,0,1,1,6,1,1,1,1,0,1,0,1,1,1,1,1,1,1,1,1,1,0,1,0,0,0,1,0,1,1,1,13.97,0,1,1,1,1,0,0,75,1,0,1,0,1,0,38.9,0,1,1,0,0,0.43397,8,0,A
'Chiba University',1,1,7,1,1,0,0,0,1,1,1,0,0,0,1,1,1,1,1,0,0,0,0,0,0,1,0,1,1,1,1,1,1,0,1,1,1,1,1,0,1,0,1,0,1,1,1,15.64,0,1,1,0,0,0,0,75,1,0,0,1,1,1,65.6,0,1,0,0,0,0.366908,0,0,A
'Patuakhali Science and Technology University',1,1,11,1,0,0,0,0,0,0,0,1,10,1,1,1,1,1,1,6,0,0,0,0,0,1,0,1,1,1,1,1,1,1,1,0,1,0,1,1,0,0,1,0,1,1,1,21,0,1,1,0,0,0,0,75,1,0,1,1,1,1,45.5,0,1,0,0,0,-1.09819,8,0,A
'Chandigarh University',1,1,8,1,0,0,1,1,1,2,1,1,10,0,0,1,1,1,1,0,1,1,0,1,0,1,0,1,1,1,1,1,1,1,1,0,1,1,1,0,0,1,1,0,1,1,1,15.43,0,1,1,0,0,1,0,100,1,0,1,1,1,1,86.8,0,1,0,0,0,0.0225321,3650,1,A
'Delft University of Technology',1,1,2,1,1,0,0,0,0,0,1,1,10,1,1,1,0,1,1,0,1,1,1,1,0,1,0,1,1,1,1,1,1,1,1,1,1,1,1,1,0,0,0,0,0,1,1,14.85,0,1,1,0,0,1,1,100,1,0,1,1,1,1,87,0,1,1,0,0,0.0837674,0,0,A
'University of Alicante',1,1,1,1,1,0,0,0,0,0,1,1,2,1,1,1,0,1,1,4,1,1,1,0,0,0,0,1,1,1,1,1,1,1,1,0,1,0,1,1,0,0,1,1,1,1,1,15.43,0,0,1,1,0,1,0,75,1,0,1,1,1,0,78.6,0,1,1,0,0,1.51756,11,0,A
'Indian Institute of Technology Bhubaneswar',1,1,9,1,1,0,0,1,0,0,0,0,0,1,1,1,1,1,1,2,1,1,0,0,0,1,0,1,1,1,1,1,1,0,1,1,1,1,1,1,0,0,1,0,1,1,1,14.35,0,1,0,0,0,0,0,90,1,0,1,0,1,1,69.6,0,1,1,0,0,3.91247,0,0,A
'Bard College',1,1,9,1,0,0,0,0,1,0,0,1,5,1,1,1,1,1,1,7,1,1,0,1,1,1,0,1,1,1,1,0,1,1,1,1,1,0,1,0,0,0,1,0,1,1,1,15.91,0,0,1,0,0,0,0,75,1,0,1,1,1,1,85.7,0,1,0,0,0,0.0521678,0,0,A
'Ateneo de Manila University',1,1,8,1,0,0,0,0,0,0,1,0,0,0,1,1,0,1,1,20,1,1,1,1,0,1,0,1,1,1,1,1,1,1,1,1,1,0,1,0,0,0,1,0,1,1,1,17.04,0,1,0,0,0,0,0,75,1,0,1,1,1,1,24.8,0,1,0,0,0,-1.17601,0,0,A
'Pokhara University',1,1,5,1,0,0,0,0,0,0,1,1,10,1,1,1,0,1,1,8,0,0,0,0,0,1,0,1,1,1,1,1,1,1,1,0,1,1,1,1,0,0,1,0,1,1,1,12.63,0,1,1,0,0,1,0,75,1,0,1,0,1,1,91.7,0,1,0,0,0,-0.400142,3,0,A
'Maastricht University',1,1,4,0,1,0,0,1,1,1,1,1,4,0,1,1,1,1,1,1,1,1,1,1,0,1,0,1,1,1,1,1,1,1,1,1,1,1,1,1,0,0,1,0,0,1,1,17.02,0,1,0,0,0,0,0,100,1,0,1,0,1,0,100,0,1,1,0,0,1.70967,7,0,A
'Wilfrid Laurier University',1,1,5,1,0,0,0,1,0,0,1,0,0,0,1,1,1,1,1,7,1,0,0,1,1,1,0,1,1,1,1,1,1,0,1,1,1,1,1,0,0,0,0,0,1,1,1,9.74,0,1,1,1,0,0,1,75,1,0,1,1,1,1,97.6,0,1,1,0,0,0.207955,0,0,A
'Vanderbilt University',0,1,4,1,0,0,0,0,1,1,1,0,0,1,1,1,0,1,1,0,1,1,0,0,1,1,0,1,1,1,1,1,1,1,1,1,1,0,1,1,0,0,1,0,1,1,1,15.38,0,1,0,0,0,0,0,75,1,0,1,1,1,1,100,0,1,1,0,0,-0.244076,5,0,A
'Babes-Bolyai University',1,1,9,1,1,0,0,0,0,0,0,1,2,0,1,1,0,1,1,8,1,1,1,0,0,1,0,1,1,1,1,1,1,1,1,1,1,0,1,0,0,0,1,1,1,1,1,1.41,0,1,1,0,0,1,0,75,1,0,1,1,1,0,87.5,0,1,1,0,0,0.0902079,62,0,A
'University of Jos',1,1,7,1,0,0,0,0,0,0,1,1,10,0,1,1,1,1,1,20,1,1,0,1,1,1,0,1,1,1,1,1,1,1,1,1,1,1,1,0,0,0,1,0,1,1,1,4.94,0,1,1,0,0,0,0,75,1,1,1,0,1,1,40,0,1,0,0,0.693147,0.1334,0,0,A
'University of Aberdeen',1,1,6,1,0,0,1,1,0,0,1,1,5,0,0,1,0,1,1,0,0,0,0,1,1,1,0,1,1,1,1,1,1,1,1,1,1,1,1,0,0,1,1,0,0,1,1,9.32,0,1,1,0,0,1,0,100,1,0,1,1,1,1,61.9,0,1,1,0,0,3.21506,3650,1,A
'Indian Institute of Technology Dharwad',1,1,12,1,1,0,0,1,1,1,1,1,10,1,1,1,1,1,1,20,1,1,1,1,1,1,0,1,1,1,1,1,1,1,1,1,1,0,1,1,0,0,0,0,0,1,0,18.88,0,1,0,0,0,1,0,75,1,0,1,0,1,1,5.4,0,1,0,0,0,0.138059,0,0,A
'Nicolaus Copernicus University',1,1,11,0,0,0,0,1,1,1,1,1,6,0,1,1,1,1,1,6,1,1,1,1,0,1,0,1,1,1,1,1,1,1,1,0,1,1,1,0,0,0,1,1,1,1,1,16.67,0,1,1,0,0,0,1,90,1,0,1,1,1,0,97.9,0,1,0,0,0,0.184434,15,0,A
'University of Hyderabad',1,1,12,1,0,0,1,1,0,0,1,0,0,1,1,1,0,1,1,16,1,1,0,0,1,1,0,1,1,1,1,1,1,1,1,1,1,0,1,1,0,0,1,0,1,1,1,21,0,1,1,0,0,0,0,90,1,0,1,0,1,1,22.2,0,1,0,0,0,-0.452935,3,0,A
'Mehran University of Engineering and Technology',1,1,5,0,0,0,0,0,1,1,1,1,6,1,1,1,1,1,1,20,1,0,1,0,1,1,0,1,1,1,1,1,1,1,1,1,1,0,1,1,0,0,1,0,1,1,1,21,0,1,1,0,0,1,0,75,1,0,1,0,1,1,87.5,0,1,0,0,0,0.146532,2,0,A
'University of Konstanz',1,1,3,1,1,0,0,0,1,1,1,1,4,0,1,1,1,1,1,7,1,1,1,0,0,1,0,0,0,1,1,1,1,0,1,1,0,1,1,1,0,0,1,0,1,1,1,21,0,1,1,0,0,0,0,75,1,0,1,1,1,0,50,0,1,1,0,0,-0.718638,0,0,A
'Claremont McKenna College',1,1,9,1,0,0,0,0,1,1,1,0,0,0,0,1,1,1,1,0,1,0,0,0,1,1,0,1,1,1,1,1,1,1,1,1,1,1,0,0,0,1,1,0,1,1,1,16.3,0,1,1,0,0,0,0,75,1,0,1,1,1,1,100,0,1,1,0,0,-1.15042,3650,1,A
'Royal Danish Academy',1,1,2,0,1,0,0,0,0,0,0,1,6,0,1,1,1,1,1,4,1,1,1,0,0,1,0,1,1,1,1,1,1,1,1,1,1,0,1,1,0,0,1,0,1,1,1,19.48,0,1,1,0,0,0,0,100,1,0,1,1,1,0,95.8,0,1,1,0,0,-0.635463,0,0,A
'Carnegie Mellon University',1,1,4,1,0,0,0,1,0,0,1,1,10,0,1,1,1,1,1,10,1,1,0,1,1,1,0,1,1,1,1,1,1,1,1,1,1,1,0,0,0,0,1,0,1,1,1,21,0,1,1,0,0,0,0,90,1,0,1,1,1,1,100,0,1,1,0,0,0.667858,0,0,A
'Chiang Mai University',1,1,8,1,1,0,0,0,0,0,1,1,10,1,1,1,1,1,0,12,1,1,1,1,0,1,0,1,1,1,1,1,1,1,1,0,1,0,1,0,0,0,1,1,1,1,1,4.48,0,1,1,0,0,0,0,75,1,0,1,1,1,1,3.4,0,0,0,0,0,3.66584,1,0,A
'Illinois Institute of Technology',1,1,6,1,0,0,0,1,0,0,1,1,2,0,1,1,1,1,1,1,1,1,0,1,0,1,0,1,1,1,1,1,1,1,1,1,1,1,1,0,0,0,1,0,1,1,1,15.91,0,1,1,1,0,0,1,90,1,0,1,1,1,1,91.1,0,1,0,0,0,-0.216109,195,0,A
'Federal University of Grande Dourados',1,1,7,1,1,0,0,0,0,0,1,1,10,1,1,1,1,1,1,2,1,0,1,1,0,1,1,1,1,1,1,1,1,0,1,0,0,1,1,1,0,0,1,1,0,1,1,12.63,0,1,1,0,0,0,0,75,1,3,1,0,1,1,93.1,0,1,1,0,1.38629,-0.502055,0,0,A
'Ain Shams University',1,1,17,1,0,0,0,1,1,2,1,1,10,1,1,1,0,1,1,6,1,1,0,1,1,1,0,1,1,1,1,1,1,1,0,1,1,1,1,0,0,0,1,1,1,1,1,8.06,0,1,1,1,1,0,0,75,1,0,1,1,1,1,100,0,1,0,0,0,0.471252,0,0,A
'University of California, Los Angeles',1,1,20,1,0,0,0,1,0,1,1,0,0,0,1,1,1,1,1,20,1,1,0,0,0,1,0,1,1,1,1,1,1,1,1,1,1,0,1,1,0,0,1,0,1,1,1,12.63,0,1,1,0,0,0,0,75,1,3,0,1,1,1,51.6,0,1,1,0,1.38629,-0.827863,0,0,A
'University of Limerick',1,1,5,1,0,0,0,0,0,0,1,1,7,1,1,1,1,1,1,0,1,1,1,1,1,1,0,1,1,1,1,1,1,1,1,0,1,1,1,1,0,0,0,0,1,1,0,10.44,0,1,0,1,0,1,0,90,1,0,0,0,1,1,100,0,1,1,0,0,-0.553258,4,0,A
'Munster Technological University',0,1,4,1,0,0,0,0,0,0,1,0,0,0,1,1,0,1,1,3,1,1,0,0,0,1,0,1,1,0,1,1,1,1,1,1,1,1,1,1,0,1,1,0,1,1,1,15.43,0,1,1,0,0,1,0,75,1,0,1,0,1,1,97,0,1,1,0,0,-0.591572,0,0,A
'Sri Venkateswara University',1,1,9,1,0,0,0,1,1,1,1,0,0,0,1,1,1,1,1,12,1,0,1,0,0,1,0,1,1,1,1,1,1,0,1,1,1,1,1,0,1,0,0,0,1,0,0,12.63,0,1,0,0,0,1,1,90,1,1,1,0,1,0,44.4,0,1,1,0,0.693147,0.932894,17,0,A
'University of Latvia',1,1,5,0,1,0,1,1,0,0,1,1,10,0,1,1,1,1,1,7,0,0,1,0,0,1,0,1,1,1,1,1,1,1,1,1,1,1,1,0,0,0,0,0,1,1,1,17.22,0,1,1,0,1,1,0,50,1,0,1,0,0,1,96.7,0,1,0,0,0,1.03569,7,0,A
'Johns Hopkins University',1,1,3,1,0,0,0,0,0,0,1,0,0,0,1,1,1,1,1,7,1,1,0,0,1,1,0,1,1,1,1,1,1,1,1,1,1,1,1,0,0,0,0,0,1,1,0,1.7,0,1,1,0,0,0,0,90,1,0,1,1,1,1,74.4,0,1,1,0,0,-0.208444,6,0,A
'RMIT University',0,1,6,1,0,0,0,1,0,0,1,1,2,0,0,1,1,1,1,0,1,1,0,0,0,1,0,1,1,1,1,1,1,1,1,1,1,1,1,0,0,1,0,0,1,1,0,18.62,0,1,0,0,0,0,1,75,1,0,1,1,1,1,45.8,0,1,1,0,0,0.0158514,3650,1,A
'Aga Khan University',1,1,9,1,0,0,0,0,0,0,1,1,8,1,1,1,0,1,1,2,1,1,0,1,0,1,0,1,1,1,1,1,1,1,1,1,1,1,1,1,0,0,0,0,1,1,1,5.74,0,1,1,0,0,1,0,75,1,1,0,1,1,1,53.8,0,1,0,0,0.693147,3.10232,0,0,A
'Jagiellonian University',1,1,0,0,1,0,0,1,1,1,1,1,10,0,1,1,1,1,1,17,1,1,1,1,0,1,0,1,1,1,1,1,1,1,1,1,0,1,0,0,0,1,1,0,1,1,1,8.47,0,1,1,0,0,1,0,75,1,0,1,0,1,0,72.7,0,1,1,0,0,0.758386,0,0,A
'University of Oregon',1,1,4,1,0,0,0,0,0,0,1,0,1,0,0,1,1,1,1,0,1,1,0,1,0,1,0,1,1,1,1,1,1,1,1,1,1,1,1,1,0,1,0,0,1,1,0,3.36,0,1,1,0,0,0,0,100,1,0,1,1,1,1,85.7,0,1,1,0,0,-0.773793,3650,1,A
'National Yunlin University of Science and Technology',1,1,20,1,0,0,0,1,0,0,1,1,7,1,1,1,1,1,0,1,1,1,0,0,0,1,0,1,1,1,1,1,1,1,1,1,1,1,1,0,0,0,1,0,1,1,1,20.86,0,1,1,0,0,0,0,75,1,39,0,1,1,0,60.6,0,1,1,0,3.68888,-1.02731,8,0,A
'University of Sindh',1,1,2,1,0,0,0,0,0,0,0,0,0,1,1,1,1,1,1,0,1,1,1,0,0,1,0,1,1,1,1,1,1,1,1,1,1,0,1,1,1,0,1,0,1,1,1,15.43,0,1,1,0,0,0,0,75,1,3,1,0,1,1,61.1,0,1,0,0,1.38629,0.118831,4,0,A
'Paris-Saclay University',1,1,4,1,1,0,0,1,1,1,1,1,10,0,1,1,1,1,1,2,1,1,0,0,0,1,0,1,1,1,0,1,1,1,1,1,1,1,1,0,0,0,1,1,0,1,1,6.58,0,1,1,0,0,0,0,90,1,0,1,0,1,0,81.8,0,1,1,0,0,-0.168424,0,0,A
'Universiti Tunku Abdul Rahman',1,1,11,1,0,1,0,0,0,0,1,0,1,1,0,1,1,1,0,0,0,0,0,0,0,1,0,1,1,1,1,1,1,1,1,1,1,0,1,1,0,1,0,0,1,1,0,21,0,1,0,1,0,0,0,75,1,0,1,0,1,0,40.9,0,1,0,0,0,-0.54652,3650,1,A
'Cheikh Anta Diop University',1,1,8,1,0,0,0,0,1,1,0,1,5,1,1,1,0,1,0,0,0,0,1,0,1,1,1,1,1,1,1,1,1,1,1,1,0,0,1,0,1,0,1,0,1,1,1,5.89,0,1,1,0,0,0,0,75,1,1,1,0,1,1,40.5,0,1,0,1,0.693147,-0.366016,0,0,A
'Drexel University',0,1,4,1,0,0,0,1,1,1,1,1,10,0,1,1,0,1,1,8,1,1,0,1,1,1,1,1,1,1,1,1,1,1,1,1,1,0,1,0,0,0,1,0,1,1,1,12.63,0,1,0,0,0,0,1,100,1,0,1,1,1,1,66.7,0,1,0,0,0,1.07328,0,0,A
'Indian Institute of Technology Bombay',1,1,6,1,1,0,0,1,1,1,1,1,5,1,1,1,1,1,1,20,1,0,1,0,0,1,0,1,1,1,1,1,1,0,1,0,1,1,1,0,0,0,0,0,1,1,1,11.2,0,1,1,0,0,0,0,75,1,1,1,1,1,1,100,0,1,0,0,0.693147,-0.286245,0,0,A
'University of Algarve',1,1,3,0,1,0,1,1,1,1,1,0,0,0,1,1,1,1,1,20,1,0,1,1,1,1,0,1,1,1,1,1,1,1,1,1,1,1,1,1,0,0,1,0,1,1,1,21,0,1,0,0,0,0,0,75,1,0,1,0,1,0,92.1,0,1,0,0,0,-0.00670468,21,0,A
'Rovira i Virgili University',1,1,9,1,1,0,0,1,0,0,1,0,0,1,1,1,1,1,1,0,0,0,1,1,0,1,0,1,1,1,1,1,1,1,0,1,1,1,1,1,0,0,0,0,1,1,1,8.86,0,1,1,0,0,0,0,75,1,0,1,1,1,0,22.2,0,1,1,0,0,0.244802,0,0,A
'Chulalongkorn University',1,1,6,1,1,0,1,1,1,1,1,0,0,1,0,1,1,1,1,0,1,1,0,1,1,1,0,1,1,1,1,1,1,1,1,1,1,1,1,0,0,0,1,0,1,1,1,21,0,1,0,0,0,0,0,100,1,0,1,0,1,1,59.1,0,1,1,0,0,-1.62289,3650,1,A
'University of Iowa',0,1,3,1,0,0,0,0,0,0,1,1,4,1,1,1,1,1,1,2,1,1,1,0,1,1,0,1,1,1,1,1,1,0,1,1,1,1,1,1,0,0,0,0,1,1,0,21,0,1,0,1,0,0,0,90,1,0,1,1,1,1,83.3,0,1,1,0,0,0.307808,3,0,A
'University of Chicago',1,1,4,1,0,0,0,0,1,1,0,0,0,0,0,1,1,1,1,4,0,0,0,1,1,1,0,1,1,1,1,1,1,1,0,1,1,0,1,0,0,1,1,0,1,1,1,8.45,0,1,1,1,0,0,0,75,1,0,1,1,1,1,100,0,1,1,0,0,-0.00625234,3650,1,A
'Dalhousie University',1,1,6,0,0,0,0,1,0,0,1,1,3,1,0,1,0,1,1,0,0,0,0,1,0,1,0,1,1,1,1,1,1,1,1,1,1,1,1,1,0,1,0,0,1,1,1,15.52,0,1,1,0,0,0,1,90,1,0,1,1,1,1,62.5,0,1,1,0,0,-0.598326,3650,1,A
'Temple University',1,1,1,1,0,1,0,1,1,0,1,1,2,0,1,1,0,1,1,0,1,1,0,0,1,1,0,1,1,1,1,1,1,1,1,1,1,1,1,0,0,0,1,0,1,1,1,21,0,1,1,0,0,0,0,90,1,0,1,1,1,1,91.3,0,1,1,0,0,0.81598,11,0,A
'Clemson University',1,1,6,1,0,0,0,1,1,1,1,1,2,0,1,1,1,1,1,7,1,1,0,0,1,1,0,1,1,1,1,1,1,1,1,1,1,1,0,0,0,0,0,0,1,1,1,19.8,0,1,1,0,0,0,0,75,1,0,1,1,0,1,42.4,0,1,1,0,0,3.76454,1,0,A
'Ulm University',1,1,5,1,1,0,0,1,0,0,1,1,3,1,1,1,1,1,1,8,1,1,1,0,0,1,0,1,0,1,1,1,1,0,0,1,1,1,1,0,0,0,1,0,1,1,1,12.63,0,1,1,0,0,1,0,75,1,0,1,1,1,1,73.5,0,1,1,0,0,0.560021,0,0,A
'University of Adelaide',1,1,6,1,0,0,0,0,0,0,1,0,0,0,0,1,0,1,1,0,0,0,0,0,0,1,0,1,1,1,1,1,1,1,1,0,1,1,1,1,0,1,0,0,1,1,1,16.58,0,1,1,1,1,0,1,100,1,0,1,1,1,1,87.5,0,1,1,0,0,0.569939,3650,1,A
'University at Buffalo',1,1,1,1,0,1,0,1,0,0,1,1,10,0,1,1,1,1,1,15,1,1,1,1,1,1,0,1,1,1,1,1,1,0,1,1,1,1,1,0,0,0,1,0,1,1,1,3.21,0,1,1,0,0,0,1,100,1,0,1,1,0,1,88.7,0,1,1,0,0,-0.485422,0,0,A
'Polytechnic University of Turin',1,1,1,1,1,0,1,1,0,0,1,0,1,1,1,1,0,1,1,1,1,1,0,1,0,1,0,1,1,1,1,1,1,1,1,1,1,0,1,1,0,0,1,0,0,1,1,14.95,0,1,1,0,0,0,0,90,1,0,1,1,1,0,100,0,1,0,0,0,-0.168285,0,0,A
'University of Almeria',1,1,0,1,1,1,0,0,0,0,0,1,3,1,0,1,1,1,1,1,1,1,0,0,1,1,0,1,1,1,1,1,1,1,1,1,0,0,1,0,0,1,1,0,0,0,1,12.82,0,1,1,0,0,0,0,90,1,0,1,0,0,0,77.4,0,1,1,0,0,1.60337,3650,1,A
'Victoria University of Wellington',1,1,5,1,0,0,0,1,0,0,0,0,0,1,0,1,1,1,1,0,1,1,0,0,0,1,0,0,1,1,1,1,1,1,1,1,1,1,1,1,0,0,1,1,1,0,1,10.05,0,1,1,0,0,0,0,100,1,0,1,1,1,1,95.5,0,1,0,0,0,-0.552657,3650,1,A
'Vytautas Magnus University',1,1,5,1,1,0,0,0,0,0,1,0,0,1,1,1,0,1,0,0,1,1,0,1,0,1,1,1,1,1,1,1,1,1,1,1,1,0,1,1,0,0,1,0,0,1,1,11.73,0,1,1,1,0,0,1,90,1,2,1,1,1,0,2.6,0,1,0,0,1.09861,-0.118306,0,0,A
'Pomona College',0,1,7,1,0,0,0,0,0,0,0,0,1,0,1,1,1,1,1,18,1,1,0,0,1,1,0,1,1,1,1,1,1,1,0,1,1,1,1,0,0,0,0,0,1,1,0,21,0,1,0,0,0,0,0,100,1,0,1,1,1,1,72,0,1,1,0,0,-0.296696,0,0,A
'Bowling Green State University',1,1,8,1,0,0,0,1,0,0,0,0,0,0,0,1,1,1,1,0,1,1,0,0,1,1,1,1,1,1,1,1,1,1,1,1,1,1,0,0,0,1,1,0,0,0,1,21,0,1,0,1,0,1,1,90,1,0,1,1,1,1,55.9,0,1,1,0,0,0.346133,3650,1,A
'Nagoya University',1,1,0,1,0,1,0,0,1,1,1,1,10,1,1,1,1,1,1,20,1,1,1,1,1,1,0,1,1,1,1,1,1,1,0,1,1,1,1,0,0,0,1,1,1,1,1,17.31,0,1,1,0,0,0,0,100,1,0,0,1,1,0,93.9,0,1,1,0,0,0.134739,95,0,A
'Lund University',1,1,1,1,0,0,0,0,1,1,1,1,2,0,1,1,1,1,1,12,1,1,1,1,0,0,0,1,1,1,1,1,1,0,1,1,1,1,1,1,0,0,1,0,0,1,1,15.43,0,0,1,0,0,0,0,100,1,4,1,1,1,1,100,0,1,1,0,1.60944,1.40898,0,0,A
'Universidad de las Americas Puebla',1,1,7,1,0,0,0,1,1,1,1,0,0,1,0,1,1,1,0,3,1,1,0,0,1,1,0,1,1,1,1,1,1,1,1,0,1,0,1,1,1,1,1,0,1,0,1,1.11,0,1,1,0,0,0,0,75,1,2,1,0,0,1,16,0,1,0,0,1.09861,0.0316586,3650,1,A
'University of Thessaly',1,1,6,1,1,0,0,1,0,0,1,0,0,1,1,1,1,1,1,6,0,0,1,0,0,1,0,1,0,1,0,1,1,0,1,1,1,1,1,1,0,0,1,1,1,1,1,18.1,0,1,1,0,0,0,0,75,1,0,0,1,1,0,87.5,0,1,1,0,0,-1.15282,55,0,A
'Khulna University',1,1,11,1,0,0,0,1,0,0,0,1,6,1,1,1,0,1,1,1,1,1,1,1,0,1,0,1,1,1,1,1,1,1,1,0,1,0,1,1,0,0,1,0,1,1,1,21,0,1,0,0,0,0,0,75,1,0,1,1,1,1,100,0,1,0,0,0,-0.0069606,2,0,A
'Nantes University',1,1,1,1,1,1,0,1,1,0,1,1,4,0,1,1,1,1,1,7,1,1,1,1,0,1,1,1,1,1,1,1,1,0,0,1,1,1,1,1,0,0,0,1,1,1,1,7.12,0,0,1,0,0,0,0,75,1,0,1,1,1,0,75,0,1,1,0,0,0.143663,0,0,A
'Kathmandu University',1,1,6,1,0,0,0,0,0,0,0,0,0,1,1,1,1,1,1,0,1,1,0,0,0,1,0,1,1,1,1,1,1,1,1,0,1,0,1,0,0,0,1,0,1,1,1,15.43,0,1,1,0,0,0,0,75,1,0,1,1,1,1,84.2,0,1,0,0,0,-0.67356,20,0,A
'University of Edinburgh',1,1,10,1,0,0,0,1,1,1,1,0,0,0,1,1,0,1,1,1,1,1,1,0,0,1,0,1,1,1,1,1,1,0,1,1,1,0,1,1,0,0,1,0,1,0,1,9.28,0,1,1,0,0,0,0,100,1,0,1,1,1,1,100,0,1,1,0,0,-1.71455,1,0,A
'Hong Kong Polytechnic University',1,1,7,1,1,0,1,1,0,0,1,0,0,0,0,1,1,1,1,1,1,1,0,1,0,1,0,1,1,1,1,1,1,1,1,1,1,0,1,0,0,0,0,1,1,1,1,9.59,0,1,1,0,0,0,1,100,1,0,1,1,1,1,98,0,1,1,0,0,0.914724,3650,1,A
'Copenhagen Business School',1,1,5,1,1,1,0,1,0,0,0,1,2,0,1,1,0,1,1,7,1,1,1,0,0,1,0,0,1,1,0,1,1,0,1,1,1,0,1,0,0,1,1,0,1,1,1,14.67,0,1,0,0,0,0,0,100,1,0,0,0,1,0,63.2,0,1,0,0,0,1.43323,0,0,A
'Clark University',1,1,5,1,0,1,0,1,1,1,1,1,3,0,0,1,1,1,1,0,1,1,0,1,0,1,0,1,1,1,1,1,1,1,1,1,1,1,1,0,0,0,1,0,1,1,1,16.81,0,1,0,0,0,0,0,90,1,0,1,1,1,1,83.3,0,1,1,1,0,0.17688,3650,1,A
'Daffodil International University',1,1,6,0,0,0,1,1,1,1,1,1,2,0,1,1,0,1,1,0,0,0,1,1,1,1,0,1,1,1,1,1,1,1,0,1,1,1,1,0,1,0,1,1,1,1,1,21,0,1,0,1,0,0,0,90,1,0,1,1,1,0,93,0,1,0,0,0,-0.170555,3,0,A
'University of St. Thomas',0,1,1,1,0,0,0,1,1,1,1,1,10,0,1,1,1,1,0,0,1,1,0,0,1,1,0,1,1,1,1,1,1,1,1,1,1,1,1,0,0,0,1,0,1,1,1,21,0,1,0,0,0,0,0,75,1,0,1,1,1,1,86.4,0,1,1,0,0,1.75319,4,0,A
'University of Gdansk',1,1,8,0,0,0,0,0,0,0,1,1,8,0,1,1,1,0,0,7,1,1,1,1,0,1,0,1,1,1,1,1,1,1,1,1,1,1,1,0,1,0,1,0,0,1,1,18.42,0,1,1,1,0,0,0,75,1,0,1,0,1,0,97.4,0,1,1,0,0,0.837026,1,0,A
'Gonzaga University',1,1,1,1,0,0,0,1,0,0,1,1,7,1,1,1,0,1,1,11,1,1,0,1,1,1,0,1,1,1,1,1,1,1,1,1,1,1,1,1,0,0,1,0,0,1,1,12.63,0,1,1,0,0,0,1,75,1,1,1,1,1,1,79.2,0,1,1,0,0.693147,1.31089,34,0,A
'Ca\' Foscari University of Venice',1,1,6,1,0,0,0,0,1,0,0,1,10,1,1,1,1,1,1,0,1,1,1,1,1,1,0,1,1,1,1,1,1,0,1,1,1,1,1,1,0,0,1,0,1,1,1,15.43,0,1,1,0,0,1,0,85,1,0,1,1,1,0,43.6,0,1,0,0,0,0.00493916,0,0,A
'University of Education Winneba',1,1,7,1,0,0,0,0,1,1,1,1,4,1,1,1,1,1,1,9,1,1,1,1,1,1,1,1,1,1,1,1,1,0,1,1,1,0,1,1,0,0,0,0,1,1,0,21,0,1,1,0,0,0,0,100,1,0,0,0,1,1,83.3,0,1,0,0,0,-0.711863,13,0,A
'Miami University',1,1,5,1,0,0,0,1,0,0,1,0,0,1,0,1,1,1,1,1,1,1,0,1,1,1,0,1,1,1,1,1,1,1,1,1,1,1,1,0,0,0,1,0,1,1,1,21,0,1,1,0,0,0,0,100,1,1,1,1,1,1,65.9,0,1,1,0,0.693147,2.22055,3650,1,A
'University of Barisal',1,1,11,0,0,0,0,0,0,0,0,1,10,1,1,1,1,1,0,20,1,1,0,1,0,1,0,1,1,1,1,1,1,1,1,0,1,0,1,1,0,0,1,1,1,1,1,15.43,0,1,1,0,0,0,0,75,1,2,1,1,1,1,95.2,0,1,0,0,1.09861,-1.0133,0,0,A
'University of Sussex',1,1,5,1,0,0,0,1,0,0,1,0,0,0,1,1,1,1,1,0,1,1,0,1,1,1,0,0,1,0,1,1,1,1,1,1,1,0,1,0,0,1,0,0,1,1,1,21,0,1,0,0,0,1,0,75,1,0,1,1,1,1,16.7,0,1,1,0,0,-1.20047,0,0,A
'University of Ghana',1,1,4,1,0,0,0,0,0,0,1,0,0,1,1,1,1,1,1,5,1,1,1,0,1,1,0,1,1,1,1,1,1,0,1,1,1,0,1,0,0,0,1,0,1,1,1,15.43,0,1,0,0,0,0,0,90,1,0,0,0,1,1,66.7,0,1,0,0,0,-0.106982,5,0,A
'Clermont Auvergne University',1,1,2,1,1,0,0,1,0,0,1,1,2,0,1,1,0,1,1,1,1,1,0,0,0,1,0,1,1,1,1,1,1,1,1,1,0,1,0,1,0,0,1,1,1,1,1,19.6,0,1,1,0,0,0,0,100,1,1,1,1,1,0,87.5,0,1,1,0,0.693147,-0.706028,0,0,A
'Roskilde University',1,1,7,1,1,0,0,0,0,0,0,0,0,0,1,1,0,1,0,0,0,0,1,0,0,1,0,0,1,1,1,1,1,0,1,0,1,1,1,1,0,1,1,0,1,1,1,14.74,0,1,0,0,0,1,0,75,1,0,1,1,1,0,100,0,1,0,0,0,0.587665,2,0,A
'Wake Forest University',1,1,2,1,0,1,0,1,0,0,0,1,10,0,1,1,1,1,1,0,1,1,0,0,1,1,0,1,1,1,1,1,1,1,1,1,1,1,1,0,0,0,0,0,1,1,1,15.91,0,1,1,0,0,0,0,90,1,0,1,1,1,1,60,0,1,0,0,0,0.0308299,41,0,A
'Assiut University',1,1,11,1,1,0,0,1,0,0,1,1,10,1,1,1,0,0,1,19,1,1,1,1,1,1,0,1,1,1,1,1,1,1,1,1,1,1,1,0,0,0,1,1,1,1,1,3.79,0,1,1,1,0,0,0,75,1,0,0,0,1,0,8.7,0,1,1,0,0,-0.218267,0,0,A
'Far Eastern University',1,1,4,1,0,0,0,0,1,1,1,0,0,1,1,1,1,1,1,3,1,1,0,0,0,1,0,1,1,1,1,1,1,1,1,0,1,1,1,0,0,0,1,0,1,1,1,5.47,0,1,1,0,0,0,0,90,1,1,0,1,1,1,0,0,1,0,0,0.693147,0.410653,22,0,A
'University of La Laguna',0,1,20,1,1,0,0,1,0,0,1,0,0,1,1,1,1,1,1,18,0,0,0,0,0,1,0,1,1,1,1,1,1,1,1,1,1,0,1,1,0,0,0,0,0,1,0,10.86,0,1,0,0,0,0,0,100,1,0,1,0,1,1,0,0,0,1,0,0,-0.228654,4,0,A
'University of the Witwatersrand',1,1,6,1,0,0,0,0,0,0,1,1,2,0,1,1,1,1,1,5,1,0,0,1,1,1,0,1,1,1,1,1,1,0,1,1,1,1,1,0,0,0,1,0,1,1,1,12.45,0,1,1,1,0,0,0,75,1,1,1,1,1,0,41.7,0,1,0,0,0.693147,0.931119,0,0,A
'Al-Farabi Kazakh National University',1,1,6,1,1,0,0,0,1,1,0,0,1,1,1,1,0,1,1,0,1,1,0,1,0,1,0,1,1,1,1,1,1,1,1,1,1,0,1,0,0,0,1,0,0,0,1,15.43,0,1,1,0,0,0,0,75,1,0,0,1,1,0,58.6,0,1,0,0,0,2.50008,1,0,A
'Central University of Tamil Nadu',1,1,4,0,0,0,0,1,0,0,1,1,10,1,1,1,1,1,1,20,1,1,1,0,1,1,0,1,1,1,1,1,1,1,1,1,1,1,1,1,0,0,0,0,1,1,0,13.77,0,1,1,0,0,0,0,75,1,0,0,0,1,1,97.7,0,1,1,0,0,2.07904,4,0,A
'Nnamdi Azikiwe University',1,1,7,0,0,0,0,0,1,1,1,1,10,0,1,1,0,1,1,8,1,1,1,1,0,1,0,1,1,1,1,1,1,1,1,0,1,0,1,1,1,0,0,0,1,0,0,16.79,0,1,0,0,0,0,0,90,1,0,1,1,1,1,100,0,1,0,0,0,-1.54044,9,0,A
'University of Southampton',1,1,0,1,1,0,0,1,0,0,1,0,1,1,0,1,0,1,1,0,1,1,0,0,0,1,0,1,1,1,1,1,1,1,0,1,1,0,1,0,1,1,1,1,1,1,1,21,0,1,1,0,0,1,1,100,1,0,1,0,1,1,91.7,0,1,1,0,0,0.370878,3650,1,A
'University of Basel',1,1,5,1,1,0,0,1,1,3,1,0,0,0,0,1,1,1,1,0,1,1,0,0,1,1,0,1,1,1,1,1,1,1,1,1,1,1,1,1,0,0,0,1,1,1,1,15.91,0,1,0,0,0,1,1,75,1,0,1,1,1,1,95.8,0,1,0,0,0,0.757652,3650,1,A
'University of York',1,1,5,1,0,0,1,1,0,0,1,0,0,0,1,1,0,1,1,1,1,1,0,1,0,1,0,1,1,1,1,1,1,0,1,1,1,1,1,0,0,0,1,0,1,1,1,19.59,0,1,1,1,0,0,0,90,1,0,1,1,1,1,11.8,0,1,1,0,0,-1.05813,1,0,A
'University of Denver',1,1,1,1,0,0,0,1,1,1,1,0,1,0,0,1,0,1,1,0,1,1,0,1,1,1,0,1,1,1,1,1,1,1,1,1,1,1,1,0,0,1,0,0,1,1,1,7.75,0,1,1,1,0,0,1,100,1,1,1,1,1,1,87,0,1,0,0,0.693147,-0.0217896,3650,1,A
'Swarthmore College',1,1,5,1,0,0,0,0,0,0,0,1,4,0,1,1,1,1,1,4,1,1,1,0,1,1,0,1,1,0,1,1,1,1,1,1,1,1,1,0,0,0,1,0,1,1,1,21,0,1,1,0,0,0,0,75,1,0,1,1,1,1,91.7,0,1,1,0,0,-0.0804169,0,0,A
'Macalester College',1,1,3,1,0,0,0,1,0,0,0,1,5,1,0,1,1,1,1,20,1,1,0,0,0,1,0,1,1,1,1,1,1,1,1,1,1,1,1,0,0,0,1,0,1,1,1,21,0,1,1,0,0,0,0,100,1,0,1,1,1,1,53.3,0,1,0,0,0,-1.1413,3650,1,A
'Slovak University of Technology in Bratislava',1,1,2,1,1,0,0,1,1,1,1,0,1,1,1,1,1,1,1,0,1,1,1,1,0,1,0,1,1,1,1,1,1,1,1,0,1,0,1,1,0,0,0,1,1,1,1,12.1,0,1,1,0,0,0,0,75,1,0,0,1,1,0,96.7,0,1,1,0,0,-0.887696,39,0,A
'University of Namur',1,1,6,1,1,1,0,0,0,0,0,1,10,0,1,1,1,0,1,9,1,1,1,0,1,1,0,1,1,1,1,1,1,0,1,1,1,1,1,1,0,0,0,0,0,1,1,10.35,0,1,0,1,0,0,0,100,1,0,0,1,1,0,100,0,1,0,0,0,0.835734,0,0,A
'Ohio State University',1,1,9,1,0,0,0,1,0,0,0,0,0,1,1,1,1,1,0,0,1,1,0,1,0,1,0,1,1,1,1,1,1,1,1,1,1,1,1,1,0,0,1,0,1,1,1,15.77,0,1,1,0,0,0,1,90,1,0,1,1,1,1,94.2,0,1,0,0,0,-0.190421,410,0,A
'National Taiwan University',1,1,5,1,0,0,1,1,0,0,1,1,6,1,0,1,1,1,1,20,1,1,0,0,1,1,0,1,1,1,1,1,1,1,1,0,1,1,1,1,0,0,1,1,1,1,1,21,0,1,1,0,0,0,0,100,1,1,0,1,1,0,100,0,1,0,0,0.693147,-0.909322,3650,1,A
'King\'s College London',1,1,6,1,0,0,0,0,0,0,0,1,4,0,1,1,1,0,1,4,1,1,0,0,0,1,1,1,1,1,1,1,1,1,1,1,1,0,1,0,0,0,1,0,0,1,1,6.13,0,1,0,0,0,0,1,75,1,0,1,1,0,1,100,0,1,1,0,0,-1.20968,0,0,A
'University of Cape Coast',1,1,7,1,0,1,0,1,1,1,1,1,10,1,1,1,0,1,1,2,1,1,1,0,0,1,0,1,1,0,1,1,1,1,1,1,1,0,1,0,0,0,1,0,1,1,1,21,0,0,1,0,0,1,0,90,1,0,1,1,1,1,95.7,0,1,1,0,0,-0.841029,3,0,A
'Tufts University',1,1,4,1,0,1,0,1,0,0,1,1,8,0,0,1,1,1,1,0,1,1,0,1,1,1,0,1,1,1,1,1,1,1,1,1,1,1,1,0,0,0,0,0,1,1,1,21,0,1,1,1,0,0,1,100,1,0,1,1,1,0,89.7,0,1,1,0,0,-0.306225,3650,1,A
'Stellenbosch University',1,1,5,1,1,0,0,0,0,0,1,1,8,1,1,1,0,1,1,5,1,1,0,0,1,1,0,0,1,1,1,1,1,0,1,1,1,1,1,0,0,0,1,0,1,1,1,13.02,0,1,1,1,0,0,0,90,1,1,1,1,1,0,95.5,0,1,1,0,0.693147,-0.519586,138,0,A
'James Cook University',1,1,2,1,0,0,0,1,0,0,1,1,2,0,0,1,0,1,1,0,0,0,0,1,0,1,0,1,1,1,1,1,1,1,1,1,1,1,1,0,0,1,1,0,1,1,1,21,0,1,0,0,0,0,1,75,1,0,1,1,1,1,100,0,1,1,0,0,0.0116149,3650,1,A
'University of Manchester',1,1,7,1,0,0,1,1,0,0,1,1,2,1,0,1,1,1,1,1,1,1,0,0,0,1,0,1,1,1,1,1,1,1,0,1,1,1,1,0,1,0,1,0,1,1,1,21,0,1,1,0,0,0,1,100,1,0,0,1,1,1,63,0,1,1,0,0,0.373545,3650,1,A
'National Chung Hsing University',1,1,10,1,1,0,0,0,0,0,1,0,0,1,1,1,1,1,0,0,1,1,0,0,1,1,0,1,1,1,1,1,1,0,1,1,1,1,1,1,0,0,1,1,1,1,1,12.63,0,1,1,0,0,1,0,75,1,0,0,1,1,0,40,0,1,0,0,0,2.82124,8,0,A
'University of Burdwan',1,1,11,0,0,1,0,1,1,1,1,0,0,1,1,1,1,1,0,0,1,1,1,1,0,1,0,1,1,1,1,1,1,1,1,1,1,1,1,0,0,0,0,0,1,1,1,15.43,0,1,0,0,0,0,0,75,1,0,1,0,1,0,2.9,0,1,0,0,0,-0.798537,0,0,A
'Union College',0,1,3,1,0,0,0,1,0,0,0,0,0,0,0,1,1,1,1,0,1,1,0,0,1,1,0,1,1,1,1,1,1,1,1,1,1,0,0,1,0,1,1,0,1,1,1,15.28,0,1,0,0,0,0,0,90,1,0,1,1,1,1,100,0,1,1,0,0,-1.24985,3650,1,A
'University of Zaragoza',1,1,1,0,1,0,0,1,1,1,1,1,7,1,1,1,1,1,0,8,1,0,1,1,1,1,0,1,1,1,1,1,1,1,1,1,1,1,1,0,0,0,1,0,0,1,0,12.02,0,1,1,1,0,0,0,75,1,0,1,0,1,0,80.9,0,1,1,0,0,1.92205,11,0,A
'University of Fribourg',1,1,1,0,1,1,0,1,1,0,0,1,5,1,1,1,0,1,1,5,0,0,1,0,0,1,0,1,1,1,1,1,1,1,1,1,1,0,1,1,0,0,0,0,1,1,1,11.65,0,1,1,0,0,0,0,75,1,0,1,0,1,1,25,0,1,0,0,0,-0.381574,0,0,A
'San Diego State University',1,1,4,1,0,0,0,1,1,1,0,1,7,1,0,1,0,1,1,6,1,1,1,0,1,1,0,1,1,1,1,1,1,1,1,1,1,1,1,0,0,0,1,0,1,1,1,21,0,1,1,0,0,0,0,75,1,0,1,1,1,1,100,0,1,1,0,0,0.546253,3650,1,A
'National University of Science and Technology Zimbabwe',1,1,9,1,0,0,0,0,0,0,1,0,0,1,0,1,1,1,1,0,1,0,0,1,0,1,0,1,1,1,1,1,1,0,1,1,1,1,1,1,0,1,0,0,1,0,0,21,0,1,1,0,0,0,0,90,1,0,1,1,1,1,90.9,0,1,0,0,0,-0.472042,3650,1,A
'University of Geneva',1,1,4,1,1,0,0,0,1,0,1,1,10,0,1,1,1,1,1,3,1,1,1,1,0,1,0,1,1,1,1,1,1,0,1,1,1,1,1,0,0,0,1,0,0,1,1,15.91,0,1,1,0,0,0,0,75,1,1,1,0,0,1,22.6,0,1,0,0,0.693147,1.25258,0,0,A
'Johannes Kepler University Linz',1,1,9,1,1,0,0,0,1,1,1,1,6,1,1,1,0,1,1,6,1,1,1,0,0,1,0,1,1,1,1,1,1,0,1,0,1,1,1,0,0,0,0,0,1,1,0,21,0,1,1,0,0,1,0,100,1,0,1,0,1,0,87.1,0,1,1,0,0,-0.829699,0,0,A
'Reykjavik University',1,1,20,1,0,0,0,0,1,1,1,0,0,0,0,1,1,1,1,0,0,0,0,1,0,1,0,1,1,1,1,1,1,1,1,0,1,0,1,1,1,1,1,0,0,1,1,10.37,0,1,0,0,0,0,0,75,1,0,1,1,1,1,14.3,0,1,0,0,0,0.991414,3650,1,A
'University of Notre Dame',1,1,3,1,1,0,0,0,0,0,0,0,1,1,0,1,1,1,1,0,1,1,0,1,1,1,0,1,1,1,1,1,1,1,1,1,1,1,1,0,0,0,1,0,1,1,1,7.46,0,1,0,0,0,0,0,100,1,0,1,1,1,1,100,0,1,1,0,0,5.32945,3650,1,A
'University of Nova Gorica',1,1,11,0,0,1,0,0,0,0,0,0,0,0,0,1,0,1,1,2,0,0,0,0,0,1,0,1,1,1,1,1,1,1,1,1,1,0,1,1,0,1,1,0,0,1,1,16.3,0,1,1,0,0,0,0,90,1,0,1,1,1,0,16.1,0,1,1,0,0,-1.28932,3650,1,A
'Kiel University',1,1,7,1,1,0,0,1,0,0,1,1,10,1,1,1,1,1,1,1,1,1,1,1,0,1,0,1,0,0,1,1,1,1,1,1,1,0,1,0,0,0,0,0,1,1,1,21,0,1,1,0,0,1,0,100,1,0,1,1,1,0,96.7,0,1,1,0,0,-0.707483,0,0,A
'University of Helsinki',0,1,2,0,1,1,0,0,0,0,1,0,0,0,1,1,1,1,1,0,1,1,1,1,0,1,0,1,1,1,1,1,1,1,1,1,1,0,1,1,0,0,1,0,1,1,1,21,0,1,0,0,0,0,0,100,1,0,1,1,1,0,63.6,0,1,1,0,0,0.613854,4,0,A
'Gwangju Institute of Science and Technology',0,1,8,1,0,0,0,1,0,0,1,1,10,1,1,1,1,1,1,0,0,0,1,1,0,1,0,1,1,1,1,1,1,1,1,0,1,0,1,1,0,0,1,0,1,1,1,9.44,0,1,0,0,0,0,0,75,1,0,0,0,1,1,92.4,0,1,0,0,0,0.547306,0,0,A
'Marche Polytechnic University',1,1,1,1,1,0,0,0,0,0,0,1,6,1,1,1,0,1,1,2,0,0,0,0,0,1,0,1,1,1,1,1,1,1,1,0,1,1,1,0,0,0,1,1,0,1,1,16.39,0,1,1,0,0,0,0,75,1,0,1,0,1,0,92.3,0,1,0,0,0,-0.0509513,0,0,A
'Indian Institute of Technology Kanpur',1,1,8,1,1,0,0,0,1,0,1,0,0,1,0,1,1,1,1,0,1,1,0,1,1,1,0,1,1,1,1,1,1,1,1,1,1,0,1,1,0,0,1,0,1,1,1,17.04,0,1,1,0,0,0,0,90,1,0,0,1,1,1,97.3,0,1,1,0,0,1.08508,3650,1,A
'Stockholm University',1,1,10,1,1,0,0,0,0,0,0,1,10,0,1,1,1,1,0,20,1,1,1,0,0,1,0,0,1,1,1,1,1,0,1,1,0,1,1,1,0,0,1,0,0,1,1,8.72,0,1,1,0,0,0,0,90,1,0,1,0,1,0,59.3,0,1,1,0,0,1.49798,0,0,A
'University of Bonn',1,1,5,1,1,1,0,1,0,0,1,1,10,0,1,1,1,1,1,4,0,0,1,0,0,1,0,1,1,1,0,1,1,0,1,1,1,1,1,0,0,0,0,0,1,1,0,17.64,0,1,1,0,0,1,0,75,1,0,1,1,1,0,100,0,1,1,1,0,-0.448017,0,0,A
'University of Vienna',1,1,4,1,1,0,1,1,0,0,1,1,10,1,1,1,0,1,1,1,0,1,1,0,0,1,0,1,1,0,1,1,1,1,1,1,1,1,1,1,0,0,0,1,1,1,1,16.43,0,1,1,0,0,1,0,100,1,0,1,1,1,0,26.1,0,1,1,0,0,-0.393456,0,0,A
'UCSI University',1,1,3,1,1,0,0,1,0,0,1,0,0,0,1,1,1,1,1,0,1,1,0,1,1,1,0,1,1,1,1,1,1,1,1,1,1,0,1,0,0,0,1,0,1,1,0,11.76,0,1,0,0,0,0,1,75,1,9,1,1,1,1,56.5,0,1,0,0,2.30259,-1.4164,12,0,A
'University College Cork',1,1,3,1,0,0,0,1,0,0,1,1,8,0,1,1,0,1,1,0,1,1,1,0,0,1,0,1,1,1,1,1,1,0,1,1,1,1,1,0,0,0,1,1,1,1,1,21,0,1,1,0,0,1,0,100,1,0,1,1,1,0,81.1,0,1,1,0,0,-0.0971314,5,0,A
'Villanova University',1,1,8,1,0,0,0,0,0,0,1,1,10,1,1,1,1,1,1,1,1,1,1,1,1,1,0,1,1,1,1,1,1,1,1,0,1,1,1,1,0,0,1,0,1,1,1,14.94,0,1,1,1,0,1,0,75,1,1,0,1,1,0,100,0,1,1,0,0.693147,2.3811,460,0,A
'MNIT Jaipur',1,1,10,0,0,0,0,1,1,1,1,0,1,1,1,1,0,1,1,0,1,0,1,1,1,1,0,1,1,1,1,1,1,1,1,0,1,1,1,1,0,0,1,0,1,1,1,21,0,1,0,1,0,1,0,75,1,0,1,1,1,0,94.9,0,1,1,0,0,-0.697024,0,0,A
'Charles III University of Madrid',1,1,5,1,0,0,0,1,1,1,1,1,5,0,1,1,0,1,1,4,1,1,1,0,1,1,0,1,1,0,1,1,1,1,0,0,1,1,1,1,0,1,0,0,1,1,1,11.37,0,1,1,0,0,0,0,100,1,0,1,1,1,0,98.3,0,1,1,0,0,-0.132637,0,0,A
'Nagoya Institute of Technology',1,1,4,1,0,0,0,1,0,0,1,0,0,1,1,1,1,1,0,1,1,1,1,1,0,1,0,1,1,1,1,1,1,1,1,0,1,1,0,0,0,0,1,1,1,1,1,12.63,0,1,1,0,0,0,0,50,1,0,0,1,1,0,62.7,0,1,0,0,0,-1.20892,7,0,A
'University of California, Berkeley',1,1,3,1,0,0,0,1,1,1,1,0,0,0,0,1,1,1,1,0,1,1,0,0,1,1,0,1,1,1,1,1,1,1,1,1,1,1,1,0,0,0,0,1,1,1,1,15.13,0,1,1,0,0,0,0,90,1,0,1,1,1,1,42.9,0,1,1,0,0,-0.344136,3650,1,A
'Heidelberg University',1,1,4,0,1,0,0,1,1,1,1,0,0,0,1,1,1,1,1,3,0,0,0,1,0,1,0,0,1,1,1,1,1,1,1,0,1,1,1,0,0,0,1,0,1,1,1,5.2,0,1,1,0,0,0,0,100,1,0,1,1,1,0,5.3,0,1,1,0,0,-0.719365,0,0,A
'University of Glasgow',1,1,4,1,0,0,0,1,0,0,1,0,0,0,1,1,0,0,1,1,0,0,0,0,0,1,0,1,1,1,1,1,1,1,1,1,1,1,1,0,0,0,1,0,1,1,1,12.29,0,1,0,0,0,0,1,90,1,0,1,1,1,1,96.9,0,1,1,0,0,-1.01278,0,0,A
'Royal University of Bhutan',1,1,7,1,0,0,0,0,0,0,1,1,3,1,1,1,0,1,0,1,1,0,0,0,0,1,0,1,1,1,1,1,1,1,0,0,0,1,1,0,1,0,1,0,1,1,1,12.63,0,1,1,1,0,0,0,90,1,0,1,0,1,1,11.1,0,1,0,0,0,-0.0690419,1,0,A
'University of North Carolina at Chapel Hill',1,1,3,1,0,0,0,1,0,0,1,1,2,1,1,1,1,1,0,20,1,1,1,0,0,1,0,1,1,1,1,1,1,0,1,1,1,1,1,0,0,0,0,0,1,1,0,2.74,0,1,1,0,0,0,0,90,1,0,1,1,1,1,64.7,0,1,1,0,0,-0.951125,0,0,A
'Lahore University of Management Sciences',1,1,6,1,0,0,0,1,1,1,1,1,10,1,0,1,1,1,1,20,1,1,0,1,1,1,0,1,1,1,1,1,1,1,1,1,1,1,1,1,0,0,1,0,1,1,1,12.63,0,1,1,0,1,0,0,75,1,1,1,0,1,0,56.4,0,1,1,0,0.693147,1.34987,3650,1,A
'IIIT Bangalore',1,1,7,1,0,0,0,0,0,0,1,1,9,0,1,1,1,1,1,10,1,0,0,0,0,1,0,1,1,1,1,1,1,0,1,1,1,0,1,0,1,0,1,1,1,1,1,2.16,0,1,1,0,0,0,0,75,1,0,0,1,1,1,78.6,0,1,1,0,0,-1.01232,206,0,A
'Ehime University',1,1,5,1,1,0,0,0,1,1,1,1,10,1,0,1,0,1,1,1,1,1,0,1,0,1,0,1,1,1,1,1,1,1,1,1,1,0,1,0,0,0,0,1,1,1,1,21,0,1,1,0,1,0,0,50,1,0,1,1,1,0,82.9,0,1,1,0,0,-1.16898,3650,1,A
'Boston University',0,1,3,1,0,0,0,0,0,0,1,0,0,1,0,1,1,1,1,0,1,1,0,0,0,1,0,1,1,1,1,1,1,1,1,1,1,1,1,1,0,0,1,0,1,1,1,12.61,0,1,0,0,0,0,0,100,1,0,0,1,1,1,30,0,1,1,0,0,-1.09324,3650,1,A
'Austral University',1,1,20,0,1,0,0,1,1,1,0,1,10,1,1,1,1,1,1,2,1,1,1,1,0,1,0,1,1,1,1,1,1,1,1,1,0,0,1,0,0,0,0,0,1,1,1,21,0,1,1,0,0,0,0,90,1,3,1,0,1,1,19.1,0,1,0,0,1.38629,-0.606959,4,0,A
'LUT University',1,1,5,1,1,0,0,1,0,0,1,1,10,0,1,1,1,1,0,5,1,1,1,0,1,1,0,1,1,1,0,1,1,0,1,1,1,1,1,1,0,0,1,0,0,1,1,21,0,1,1,0,0,0,0,100,1,0,1,1,1,1,78.6,0,1,0,0,0,0.512978,0,0,A
'University of South Bohemia',1,1,0,1,1,0,0,0,0,0,1,1,10,1,1,1,1,1,1,0,0,0,1,1,0,1,0,1,1,1,1,1,1,1,1,1,1,1,1,1,0,0,0,0,1,1,0,16.67,0,1,1,0,0,0,0,90,1,1,1,0,1,1,2.4,0,1,1,0,0.693147,-0.0618786,0,0,A
'Central Queensland University',1,1,4,1,0,1,0,0,0,0,0,0,0,1,0,1,0,1,1,0,1,1,0,0,1,1,0,0,1,1,1,1,1,0,1,1,1,1,1,0,0,1,0,1,1,1,0,21,0,0,0,0,0,0,1,75,1,0,1,1,1,1,91.1,0,1,1,0,0,0.0135702,3650,1,A
'Pondicherry University',1,1,7,0,0,0,0,0,1,1,1,1,10,0,1,1,1,1,1,20,1,1,1,1,1,1,0,1,1,1,1,1,1,1,1,1,1,0,1,0,0,0,0,0,1,1,1,21,0,1,0,0,0,0,0,90,1,0,0,0,1,1,17.5,0,1,0,0,0,0.837084,0,0,A
'Agricultural University of Athens',1,1,3,1,0,0,0,1,0,0,1,1,10,1,1,1,1,1,1,3,0,0,0,1,1,1,0,1,1,1,0,1,1,1,1,1,1,0,1,1,0,0,0,0,0,1,1,12.63,0,1,1,0,0,0,0,75,1,0,1,0,1,1,81,0,1,1,0,0,2.54473,4,0,A
'Indian Institute of Technology Guwahati',1,1,10,1,0,0,1,1,0,0,1,1,10,1,1,1,1,1,1,9,0,0,0,0,1,1,0,1,1,1,1,1,1,0,1,0,1,0,1,0,1,0,1,0,1,1,1,12.63,0,1,1,0,1,0,0,75,1,2,0,1,1,0,2.1,0,1,1,0,1.09861,0.744858,0,0,A
'Kaunas University of Technology',1,1,5,1,1,0,0,1,0,1,1,0,0,0,1,1,1,1,1,20,1,1,0,1,0,1,0,1,1,1,1,1,1,1,1,0,1,0,1,0,0,0,1,0,1,1,1,11.55,0,1,1,0,0,0,0,90,1,0,1,1,1,0,94.6,0,1,1,0,0,0.262537,211,0,A
'Rochester Institute of Technology',0,1,1,1,0,0,0,1,1,1,1,0,0,0,0,1,1,1,1,5,1,1,0,1,1,1,0,1,1,1,1,1,1,1,1,1,1,1,1,0,0,0,1,0,1,1,1,15.43,0,1,0,0,0,1,0,100,1,0,1,1,1,1,96.6,0,1,1,0,0,-0.06923,3650,1,A
'City University of Hong Kong',1,1,7,0,1,0,1,1,0,0,1,0,1,0,1,1,1,1,1,0,1,1,0,1,1,1,0,1,1,1,1,1,1,1,1,1,1,0,1,0,0,0,1,0,1,1,1,12.13,0,1,1,0,0,0,0,75,1,0,0,0,1,1,66.7,0,1,1,0,0,0.903086,0,0,A
'University of Lorraine',1,1,9,1,1,0,0,1,0,0,0,1,2,0,0,1,1,1,1,13,1,0,0,0,0,1,0,1,1,1,1,1,1,1,1,1,1,1,1,0,0,0,0,0,1,1,0,15.91,0,1,1,0,0,0,0,90,1,0,1,1,1,0,42.1,0,1,1,0,0,-0.946822,3650,1,A
'George Washington University',1,1,7,1,0,0,0,0,1,1,1,0,1,1,1,0,1,1,0,20,1,1,1,1,1,1,0,1,1,1,1,1,1,0,0,1,1,1,1,0,0,0,1,0,1,1,1,9.74,0,1,1,1,0,0,1,90,1,0,1,1,1,1,92.3,0,1,1,0,0,-0.0458206,0,0,B
'McMaster University',0,1,4,0,0,0,0,0,0,0,1,0,0,0,1,1,1,1,1,0,1,0,0,0,0,1,0,1,1,1,1,1,1,0,1,1,1,0,1,0,0,1,1,0,0,0,1,15.43,0,1,0,0,0,0,0,75,1,0,1,1,0,1,98.4,0,1,0,0,0,0.68816,1,0,B
'V. N. Karazin Kharkiv National University',1,1,1,1,1,0,0,1,0,0,1,1,7,1,1,1,0,1,0,0,1,1,0,1,0,1,0,1,1,1,1,1,1,1,1,1,1,1,1,1,0,0,1,0,1,1,1,14.86,0,1,1,0,0,0,0,75,1,0,1,0,1,1,0,0,1,0,0,0,-0.667717,7,0,B
'Auburn University',1,1,3,1,0,0,0,0,0,0,1,1,3,0,0,1,1,1,1,5,0,0,1,1,1,1,0,1,1,1,1,1,1,1,1,1,1,1,1,0,0,0,0,0,1,1,0,15.43,0,1,1,0,0,0,1,90,1,0,1,1,1,1,88,0,1,1,0,0,0.935099,3650,1,B
'Tilburg University',0,1,10,1,1,1,0,1,0,0,1,0,1,0,0,1,1,1,1,0,1,1,0,0,0,1,0,1,1,1,1,1,1,0,1,1,1,1,1,1,1,0,0,0,1,1,1,21,0,1,0,0,0,0,0,100,1,0,1,0,1,0,100,0,1,1,0,0,-0.196553,3650,1,B
'Syracuse University',1,1,5,1,0,0,0,1,1,1,0,1,8,0,0,1,1,1,1,10,1,1,0,0,1,1,0,1,1,1,1,1,1,1,1,0,1,1,1,0,0,0,1,0,0,1,1,12.63,0,1,1,0,0,0,1,100,1,0,1,1,1,1,85.7,0,1,1,0,0,-0.0398128,3650,1,B
'Central University of Karnataka',1,1,13,0,1,0,0,0,0,0,0,0,0,1,1,1,0,1,0,20,1,1,1,0,0,1,1,1,1,1,1,1,1,1,1,0,1,0,1,1,1,0,1,0,1,0,1,15.43,0,1,1,0,0,1,0,75,1,0,1,0,1,0,36.6,0,1,0,0,0,-0.345393,0,0,B
'Florida State University',1,1,3,1,0,0,0,1,0,0,1,0,0,1,1,1,1,1,1,7,0,0,1,0,1,1,0,1,1,1,1,1,1,0,1,1,1,1,0,0,0,0,0,0,1,1,1,9,0,1,1,1,0,0,0,75,1,0,0,1,0,1,50,0,1,0,0,0,-0.177369,0,0,B
'University of Zambia',1,1,6,1,0,0,0,0,1,1,0,0,0,1,1,1,1,1,1,1,1,1,1,0,1,1,0,1,1,1,1,1,1,0,1,1,1,1,1,1,0,0,0,0,1,0,1,21,0,1,0,0,0,0,0,75,1,0,1,0,1,1,64.7,0,1,0,1,0,-0.313143,175,0,B
'University of Montreal',0,1,7,1,0,0,0,0,0,0,0,1,2,0,1,1,0,1,0,0,1,1,0,0,0,1,0,1,1,1,1,1,1,1,1,1,1,1,1,0,0,0,1,0,1,1,1,7.94,0,1,0,0,0,1,0,90,1,0,1,0,1,1,20,0,1,0,0,0,0.543352,28,0,B
'Pavol Jozef Safarik University',1,1,8,1,0,0,0,1,0,0,1,0,0,0,1,1,0,1,1,0,1,0,0,0,0,1,0,0,1,1,1,1,1,1,1,0,1,1,1,1,0,0,1,1,1,1,1,21,0,1,1,1,0,1,0,90,1,0,1,0,1,0,26.5,0,1,0,0,0,-0.395788,46,0,B
'University of Western Australia',1,1,6,0,0,0,1,1,0,0,1,1,4,0,0,1,0,1,1,0,1,1,0,1,0,1,0,1,1,1,1,1,1,1,1,1,1,1,1,1,0,1,1,0,0,1,1,19.8,0,1,1,0,0,0,0,75,1,0,1,0,1,1,100,0,1,1,0,0,0.166085,3650,1,B
'University of California, Santa Cruz',0,1,7,1,0,0,0,1,1,1,1,0,0,0,1,1,1,1,1,0,0,0,0,1,1,1,0,1,1,1,1,1,1,1,1,1,1,1,0,0,0,0,0,0,1,1,0,21,0,1,0,0,0,0,0,90,1,2,1,0,1,1,100,0,1,1,0,1.09861,-0.346208,11,0,B
'Texas Christian University',1,1,6,1,0,0,0,1,1,1,0,1,3,1,0,1,1,1,1,2,1,1,0,1,1,1,0,1,1,1,1,1,1,1,1,1,1,1,0,0,0,0,1,0,1,1,1,16.52,0,1,0,0,0,0,0,100,1,0,1,1,1,1,64,0,1,1,0,0,-0.50966,3650,1,B
'Amherst College',0,1,6,1,0,0,0,0,0,0,1,1,2,0,0,1,1,1,1,6,1,1,0,0,1,1,0,1,1,1,1,1,1,1,1,1,1,1,1,0,0,0,0,0,1,1,0,7.89,0,1,0,0,0,0,0,100,1,0,1,0,1,1,100,0,1,1,0,0,-0.168047,3650,1,B
'Swedish University of Agricultural Sciences',1,1,1,0,1,1,0,1,0,0,0,1,8,0,1,1,0,1,0,9,1,1,1,1,0,1,0,1,1,1,1,1,1,0,1,1,1,1,1,1,0,0,1,0,0,1,1,20.53,0,1,1,0,0,0,0,100,1,0,1,1,1,1,70,0,1,1,0,0,-0.718395,0,0,B
'University of Kansas',1,1,7,1,0,0,0,1,0,0,0,1,9,0,0,1,1,1,0,0,0,0,0,0,0,1,0,1,1,1,1,1,1,1,1,1,1,1,1,1,0,0,1,0,1,1,1,12.63,0,1,0,0,0,0,0,100,1,0,1,1,1,1,100,0,1,1,0,0,1.23321,3650,1,B
'Colgate University',1,1,5,1,0,0,0,0,0,0,0,1,9,1,0,1,1,1,1,10,0,0,0,0,1,1,0,1,1,1,1,1,1,1,1,1,1,0,1,1,0,0,1,0,1,1,1,21,0,1,1,0,0,0,1,75,1,0,1,0,1,0,100,0,1,0,0,0,-0.165975,3650,1,B
'University of Jaffna',1,1,9,1,0,0,0,0,1,1,1,1,5,1,0,1,0,1,1,11,0,0,0,0,0,1,0,1,1,1,1,1,1,1,1,1,1,0,1,0,0,0,1,0,1,1,1,10.17,0,1,1,0,0,0,0,90,1,1,1,1,1,1,66.7,0,1,0,0,0.693147,-0.742322,3650,1,B
'University of Virginia',1,1,5,1,0,0,0,0,0,0,1,1,5,1,0,1,1,1,1,3,1,1,0,0,1,1,0,1,1,1,1,1,1,1,1,1,0,0,1,0,0,0,0,0,1,1,1,5.74,0,1,1,0,0,0,0,75,1,0,1,1,1,1,79.2,0,1,1,0,0,1.94564,3650,1,B
'Orebro University',1,1,5,1,1,0,0,0,0,0,0,1,3,1,1,1,0,1,0,0,0,0,0,0,0,0,0,0,1,1,1,1,1,0,1,1,1,0,1,1,0,0,1,0,0,1,1,11.39,0,0,1,0,0,0,0,100,1,0,0,1,1,0,100,0,1,1,0,0,-1.00745,0,0,B
'IT University of Copenhagen',1,1,5,1,1,1,0,1,0,0,1,1,3,0,1,1,0,1,1,0,1,1,1,0,1,1,0,1,1,0,1,1,1,0,1,1,1,1,1,1,0,1,1,0,0,1,1,12.63,0,1,1,0,0,1,0,75,1,0,0,1,0,1,85.7,0,1,1,0,0,1.72083,2,0,B
'Carleton University',1,1,10,1,0,0,0,0,0,0,1,1,5,0,0,1,1,1,1,4,1,1,0,0,1,1,0,1,1,1,1,1,1,1,1,1,1,1,1,1,0,0,0,0,1,1,0,12.63,0,1,1,0,0,0,0,90,1,0,1,1,1,1,42.1,0,1,1,0,0,-0.0317334,3650,1,B
'University of Nevada, Reno',1,1,5,1,0,0,0,1,0,0,0,0,0,0,0,1,1,1,1,0,0,1,0,1,1,1,0,1,1,1,1,1,1,1,1,1,1,1,1,1,0,0,1,0,0,1,1,11.2,0,1,1,0,0,0,0,75,1,0,0,1,1,1,78.6,0,1,1,0,0,-0.883175,3650,1,B
'University of Crete',1,1,4,1,1,0,0,0,0,0,1,1,3,1,1,1,1,1,1,2,1,1,0,1,0,1,0,1,1,1,1,1,1,1,0,0,1,1,1,0,0,0,0,0,1,1,1,5.49,0,1,1,0,0,1,0,90,1,0,0,0,1,1,72,0,1,1,0,0,2.48938,4,0,B
'Binghamton University',1,1,9,1,0,0,0,1,0,0,0,0,1,0,0,1,1,1,1,0,0,0,0,0,1,1,0,1,1,1,1,1,1,1,1,1,1,0,1,0,0,0,1,0,1,1,1,11.03,0,1,0,1,0,0,0,75,1,0,1,1,1,1,100,0,1,1,0,0,-0.785394,3650,1,B
'Cape Peninsula University of Technology',1,1,2,1,1,0,0,0,0,1,1,0,0,0,1,1,0,1,1,18,1,1,0,1,0,1,0,1,1,1,1,1,1,1,1,0,1,1,1,0,0,0,0,0,1,1,1,12.63,0,1,1,0,0,0,0,90,1,0,1,1,1,0,65.6,0,1,0,0,0,0.473917,0,0,B
'Brandeis University',1,1,7,1,0,0,0,1,0,0,1,0,0,1,0,1,1,1,0,0,0,0,0,1,1,1,0,1,1,1,1,1,1,1,1,1,1,1,1,0,0,0,1,0,1,1,1,21,0,1,0,0,0,0,0,75,1,0,0,1,1,1,45.8,0,1,1,0,0,-0.071716,3650,1,B
'Central University of Rajasthan',1,1,10,1,0,0,1,1,1,1,1,0,1,0,1,1,1,1,1,7,1,1,1,0,0,1,0,1,1,1,1,1,1,0,1,0,1,0,1,1,0,0,0,0,1,1,0,19.26,0,1,1,1,0,1,0,75,1,0,0,1,1,1,44.4,0,1,1,0,0,-0.612457,0,0,B
'Eindhoven University of Technology',1,1,6,1,1,0,0,0,0,0,1,1,4,0,0,1,1,1,1,0,1,1,1,0,0,1,0,1,1,1,1,1,1,1,1,1,0,1,1,1,0,0,1,0,1,1,1,5.02,0,1,0,0,0,1,0,75,1,0,1,1,1,1,93.8,0,1,0,0,0,-0.0881592,3650,1,B
'Tribhuvan Institute of Engineering',1,1,11,1,0,0,0,1,0,0,0,0,0,1,1,1,1,1,1,0,1,0,0,1,0,1,0,1,1,1,1,1,1,1,0,1,0,0,1,1,1,0,1,0,1,1,0,15.43,0,1,1,0,0,0,0,75,1,0,1,0,1,1,0,0,1,0,0,0,-0.919604,11,0,B
'Loyola University Chicago',1,1,3,1,0,0,0,1,1,1,1,0,1,0,0,1,1,1,1,9,1,1,0,1,1,1,0,1,1,1,1,1,1,1,1,1,1,0,1,0,0,0,1,0,1,1,1,21,0,1,1,1,0,0,0,75,1,0,1,1,1,1,59.1,0,1,0,0,0,-0.121228,3650,1,B
'Singapore Management University',1,1,8,1,0,0,1,1,1,0,1,0,0,0,1,1,1,1,1,1,1,1,0,1,1,1,0,1,1,1,1,1,1,0,1,0,1,1,1,0,0,0,1,0,1,1,1,21,0,1,1,0,0,0,0,75,1,0,0,0,1,1,80.7,0,1,1,0,0,-0.156427,0,0,B
'International Islamic University Islamabad',1,1,7,0,0,0,0,1,1,1,0,0,0,0,1,1,0,1,1,0,1,1,0,0,0,1,0,1,1,1,1,1,1,1,1,1,1,1,1,1,0,0,1,0,1,1,1,12.63,0,1,1,0,0,0,0,90,1,0,1,0,0,1,22.2,0,1,0,0,0,-0.710548,1,0,B
'Indian Institute of Science',1,1,1,1,1,0,0,1,1,1,1,1,10,1,1,1,0,1,1,3,0,0,0,1,0,1,0,1,1,1,1,1,1,1,1,0,1,1,1,1,0,0,0,0,1,1,0,21,0,1,1,0,0,0,0,75,1,0,0,0,1,1,40,0,1,0,0,0,-0.786806,0,0,B
'Kwansei Gakuin University',1,1,3,0,1,0,0,0,1,1,1,1,7,1,1,1,1,1,0,0,1,1,0,1,1,1,0,1,1,1,1,1,1,1,0,0,1,0,1,0,0,1,1,1,1,1,1,12.63,0,1,1,0,0,0,1,50,1,0,1,1,0,1,7.4,0,1,0,0,0,-0.183115,83,0,B
'Kyung Hee University',1,1,3,1,0,0,0,1,0,0,1,1,5,1,1,1,1,1,0,0,0,0,1,0,0,1,0,1,1,1,1,1,1,1,1,0,0,1,1,1,0,0,1,1,1,1,0,7.46,0,0,1,0,0,0,0,75,1,0,0,0,1,1,75.5,0,1,0,0,0,-0.0857924,53,0,B
'University of Ibadan',1,1,12,0,0,0,0,0,1,1,0,1,3,1,1,1,0,1,1,7,1,1,1,0,0,1,0,1,1,1,1,1,1,1,1,0,1,0,1,0,0,0,0,0,1,0,1,7.08,0,1,1,0,0,0,0,75,1,0,0,0,1,1,100,0,1,0,0,0,-1.55362,1,0,B
'University of North Sumatra',1,1,10,1,1,0,1,1,1,1,1,1,10,1,1,1,1,1,0,0,1,1,0,1,0,1,0,1,1,0,1,1,1,1,0,1,1,1,1,0,0,0,1,1,1,1,1,21,0,0,0,0,0,0,0,90,1,0,1,1,1,1,100,0,1,1,0,0,-0.981161,0,0,B
'Brawijaya University',1,1,7,1,1,0,1,1,1,1,1,1,5,1,1,1,1,1,1,1,0,0,0,1,1,1,0,1,1,0,1,1,1,1,1,0,1,1,1,0,0,0,0,1,1,1,1,12.63,0,1,1,0,0,0,0,75,1,0,1,0,1,1,62.1,0,1,0,0,0,-0.43495,1,0,B
'Public University of Navarre',1,1,5,1,1,0,0,1,0,0,0,1,10,1,0,1,0,1,1,2,1,1,0,0,0,1,0,1,1,1,1,1,1,1,1,1,1,0,1,0,0,0,1,1,1,1,1,18.58,0,1,0,0,0,0,0,75,1,0,0,1,1,0,64.8,0,1,0,0,0,-0.259466,3650,1,B
'Doshisha University',1,1,1,1,1,1,0,0,0,0,0,0,0,1,0,1,0,1,1,2,1,1,0,1,0,1,0,1,1,1,1,1,1,1,1,1,1,0,1,0,0,0,1,1,1,1,1,17.4,0,1,1,0,0,0,0,100,1,0,0,1,1,0,57.7,0,1,0,0,0,-1.06664,3650,1,B
'University of Macedonia',1,1,8,1,0,0,0,0,0,0,0,0,0,1,1,1,1,1,1,0,1,1,1,1,1,1,0,1,0,1,1,1,1,1,1,0,1,0,1,1,0,0,1,0,1,1,1,1.54,0,1,1,0,0,0,0,75,1,14,0,1,1,1,100,0,1,1,0,2.70805,-0.578507,24,0,B
'Mackenzie Presbyterian University',1,1,8,1,1,1,0,0,1,3,0,1,2,0,1,1,1,1,0,0,0,0,0,1,0,1,0,1,1,0,1,1,1,0,1,0,1,1,1,1,1,1,0,0,1,1,1,12.63,0,1,1,1,0,0,1,75,1,0,1,0,1,1,16.7,0,1,0,0,0,-0.254801,77,0,B
'Bangladesh University of Textiles',1,1,9,1,0,0,0,0,0,0,0,0,0,1,1,1,0,1,0,0,0,0,1,0,0,1,0,1,1,1,1,1,1,1,1,1,1,1,1,1,0,0,0,0,0,1,0,3.98,0,1,0,0,0,0,0,90,1,0,1,0,1,1,18.2,0,1,0,0,0,-1.14756,22,0,B
'Indian Institute of Technology Palakkad',1,1,10,0,1,0,0,0,0,0,1,1,7,0,1,1,1,1,1,7,1,1,0,0,0,1,0,1,1,1,1,1,1,1,1,0,1,0,1,1,1,0,0,0,1,1,0,7.39,0,1,0,0,0,0,0,75,1,0,0,0,0,1,7.1,0,1,0,0,0,-0.744766,0,0,B
'Free University of Berlin',1,1,7,1,1,1,0,1,0,0,1,1,3,0,0,1,1,1,1,9,0,1,0,1,0,1,0,1,1,1,1,1,1,0,1,1,1,0,1,0,0,0,0,0,1,1,1,21,0,1,0,0,0,1,0,100,1,0,1,1,1,0,75,0,1,1,0,0,-1.03169,3650,1,B
'National University of Uzbekistan',1,1,2,1,1,0,0,1,1,1,1,1,10,1,1,1,0,0,1,7,1,1,1,1,1,1,0,1,1,1,1,1,1,1,1,1,1,1,1,0,0,0,1,0,1,1,1,13.61,0,1,0,0,0,0,0,90,1,0,1,0,1,1,3.8,0,1,0,0,0,0.931265,1,0,B
'Leiden University',1,1,5,1,1,0,0,0,0,0,1,0,0,1,1,1,0,0,1,7,0,1,1,0,1,1,0,0,1,1,1,1,1,1,1,1,1,0,1,0,0,0,0,0,0,1,1,7.06,0,1,1,0,0,0,0,90,1,0,0,1,1,0,14.3,0,1,0,0,0,0.747467,0,0,B
UCLouvain,1,1,20,1,1,0,0,0,0,0,0,0,0,1,1,1,0,1,0,1,1,1,0,0,0,1,0,1,1,1,1,1,1,1,1,1,1,1,1,0,0,0,0,0,1,1,0,15.43,0,1,1,0,0,0,0,75,1,0,1,0,1,0,37.7,0,1,0,0,0,1.54478,1,0,B
'Boston College',1,1,3,0,0,0,0,1,0,0,1,1,4,1,0,1,1,1,1,6,1,1,0,1,0,1,0,1,1,1,1,1,1,1,1,1,1,1,1,0,0,0,0,0,1,1,1,7.46,0,1,1,0,0,0,1,75,1,0,1,1,1,1,93.8,0,1,1,0,0,-0.982614,3650,1,B
'Bocconi University',1,1,2,1,1,0,0,1,0,0,0,0,1,1,0,1,1,1,1,0,1,1,0,0,1,1,0,1,1,1,1,1,1,1,1,1,1,0,1,1,0,0,1,0,1,1,1,19.32,0,1,0,0,0,1,0,100,1,0,1,1,1,1,75,0,1,1,0,0,-0.406895,3650,1,B
'Pakistan Institute of Engineering and Applied Sciences',1,1,9,1,0,0,0,1,0,0,1,0,0,1,1,1,0,1,1,8,1,1,1,1,1,1,0,1,1,1,1,1,1,1,1,1,0,0,1,0,0,0,1,0,1,1,1,5.74,0,1,0,0,0,0,0,75,1,0,1,0,1,1,68.3,0,1,0,0,0,0.0886869,3650,1,B
'University of Primorska',1,1,6,1,0,0,0,1,0,0,1,0,0,1,0,1,1,1,1,0,0,0,0,0,0,1,0,0,1,1,1,1,1,1,1,0,1,1,1,0,0,0,1,0,0,1,1,9.79,0,1,1,0,1,0,0,100,1,0,1,1,1,1,71.4,0,1,1,0,0,-0.954693,3650,1,B
'Clarkson University',1,1,5,1,0,0,0,1,1,1,1,0,0,0,0,1,1,1,1,0,0,0,0,1,1,1,0,1,1,1,1,1,1,1,1,0,1,1,1,1,0,0,1,0,1,1,1,9.68,0,1,1,1,0,0,0,75,1,0,1,1,1,1,88.9,0,1,1,0,0,-0.159553,3650,1,B
'Panjab University',1,1,1,0,0,0,1,1,1,1,0,0,0,1,1,1,0,1,1,0,0,1,0,1,0,1,0,1,1,1,1,1,1,1,1,1,1,0,1,1,0,0,1,1,1,1,1,15.43,0,1,0,0,0,0,0,75,1,0,1,1,0,1,100,0,1,0,0,0,-0.0408527,7,0,B
'Stony Brook University',1,1,4,1,0,0,0,1,0,0,0,1,9,0,0,1,1,1,1,12,1,1,0,1,1,1,0,1,1,1,1,1,1,1,1,1,1,0,1,1,0,0,1,0,1,1,1,8.72,0,1,1,0,0,0,0,75,1,0,1,1,1,1,85.7,0,1,1,0,0,1.41468,3650,1,B
'De La Salle University',1,1,3,1,0,0,0,1,1,1,1,0,0,1,0,1,1,1,1,0,1,1,0,1,0,1,0,1,1,1,1,1,1,1,1,1,1,1,1,1,0,0,1,0,1,1,1,21,0,1,1,0,0,1,0,75,1,0,1,1,1,1,2.6,0,1,0,0,0,-0.327193,3650,1,B
'Igor Sikorsky Kyiv Polytechnic Institute',1,1,7,0,0,0,0,0,1,0,1,1,2,1,1,1,0,1,1,9,1,0,1,1,1,1,0,1,1,1,1,1,1,1,0,0,1,0,0,0,0,1,0,1,1,1,0,9.74,0,1,1,0,0,0,0,75,1,0,1,1,1,0,88.5,0,1,0,0,0,-0.510973,11,0,B
'University of Strathclyde',1,1,3,1,0,0,0,0,0,0,1,1,7,1,0,1,0,1,1,0,1,1,1,0,1,1,0,1,1,1,1,1,1,1,1,1,1,1,1,0,0,0,0,0,0,1,1,21,0,1,1,1,0,1,1,75,1,0,1,1,1,1,84.2,0,1,1,0,0,-0.972284,3650,1,B
'Gdansk University of Technology',1,1,4,1,1,0,1,1,1,1,1,0,0,0,0,1,1,1,0,0,1,1,0,0,0,1,0,1,1,1,1,1,1,1,1,1,1,1,1,1,0,0,0,0,0,1,1,10.73,0,1,1,0,0,1,0,100,1,1,0,0,1,1,67.4,0,1,1,0,0.693147,-1.04372,3650,1,B
'Williams College',0,1,4,0,1,0,0,0,0,0,0,1,10,1,1,1,0,1,1,15,1,1,1,1,1,1,1,1,1,0,1,1,1,1,0,1,1,1,1,0,0,1,1,0,1,1,1,21,0,1,0,0,0,0,0,90,1,2,1,0,1,1,100,0,1,1,0,1.09861,0.34924,0,0,B
'University of Nebraska-Lincoln',1,1,6,1,0,1,0,1,0,0,1,0,1,1,0,1,1,1,1,3,1,1,0,1,0,1,0,1,1,1,1,1,1,0,1,1,1,1,1,0,0,0,0,0,1,1,0,10.05,0,1,0,0,0,0,1,100,1,1,1,0,1,1,86.4,0,1,1,0,0.693147,-0.51691,3650,1,B
'Sts. Cyril and Methodius University Skopje',1,1,10,1,1,0,0,1,1,1,1,1,8,1,1,1,1,1,1,0,0,0,1,1,1,1,0,1,1,1,1,1,1,1,1,0,1,0,1,0,0,0,0,0,1,1,0,15.43,0,1,0,0,0,0,0,90,1,0,0,0,1,1,80,0,1,0,0,0,0.777374,70,0,B
'Obafemi Awolowo University',1,1,4,1,1,0,0,0,1,1,1,0,0,1,1,1,1,1,1,0,0,0,0,0,1,1,0,1,1,1,1,1,1,0,1,1,1,0,1,0,0,0,0,0,1,1,0,21,0,1,1,0,0,0,0,75,1,0,1,0,1,1,81.8,0,1,0,0,0,-0.634587,1,0,B
'Hamilton College',1,1,3,1,0,0,0,0,0,0,1,1,3,0,0,1,1,1,1,1,1,1,0,1,1,1,0,1,1,1,1,1,1,1,1,1,1,1,1,0,0,0,1,0,1,1,1,1,0,1,0,0,0,0,0,100,1,0,1,1,1,1,95.5,0,1,1,0,0,-0.117085,3650,1,B
'University of Texas at Austin',1,1,5,1,0,0,0,1,0,0,1,1,7,0,0,1,1,1,0,0,1,0,0,1,1,1,0,1,1,1,1,1,1,1,1,1,1,0,1,0,0,0,0,0,1,1,1,15.32,0,1,0,0,0,0,0,100,1,0,1,1,1,1,77.8,0,1,1,0,0,-0.382461,3650,1,B
'Bahauddin Zakariya University',1,1,20,1,0,0,0,1,1,1,1,1,10,1,0,1,1,1,1,0,1,1,0,0,0,1,0,1,1,1,1,1,1,1,1,1,1,1,1,1,1,0,0,0,0,0,0,3.9,0,1,0,1,0,0,0,75,1,0,1,1,0,1,93.8,0,1,0,0,0,0.206006,3650,1,B
'Bielefeld University',1,1,7,1,0,0,0,0,0,0,0,1,3,1,1,1,1,1,1,3,1,1,1,0,0,1,0,1,0,0,1,1,1,0,1,1,1,1,1,1,0,0,0,0,1,1,1,21,0,1,0,0,0,0,1,90,1,0,1,1,1,0,100,0,1,1,0,0,-0.692449,0,0,B
'Kanazawa University',1,1,8,1,1,0,0,0,1,1,0,1,8,1,1,1,0,1,0,5,1,1,0,1,1,1,0,1,1,1,1,1,1,0,0,1,1,0,1,0,0,0,1,1,1,1,1,9.52,0,1,1,1,0,0,0,75,1,0,1,1,1,1,1.8,0,1,0,0,0,0.0534693,7,0,B
'Suranaree University of Technology',1,1,6,1,1,0,0,1,1,1,0,0,0,0,1,1,1,1,0,0,1,0,0,0,0,1,0,1,1,1,1,1,1,1,1,0,1,1,1,1,0,0,1,0,0,1,0,13.08,0,1,1,0,0,0,0,20,1,0,1,0,1,1,60.7,0,0,0,0,0,-1.87492,0,0,B
'Helwan University',1,1,8,1,1,0,0,1,1,1,1,0,1,0,1,1,1,1,0,0,1,0,0,1,0,1,0,1,1,1,1,1,1,1,1,0,1,0,1,0,0,0,0,0,1,1,0,14.94,0,1,1,0,1,1,0,75,1,1,1,1,1,1,100,0,1,0,0,0.693147,-0.0173647,89,0,B
'Scripps College',1,1,3,1,0,0,0,0,0,1,1,1,5,0,0,1,0,1,1,11,1,1,0,0,0,1,0,1,1,1,1,1,1,1,1,1,0,1,1,0,0,0,1,0,1,1,1,12.63,0,1,1,0,0,1,1,75,1,1,1,1,1,1,35.7,0,1,1,0,0.693147,-0.655088,3650,1,B
'University of Bristol',1,1,4,1,0,0,1,1,0,0,1,1,2,1,1,1,0,0,1,4,0,0,1,0,0,1,0,0,1,1,1,1,1,0,1,1,1,1,1,0,0,0,1,0,1,1,1,12.63,0,1,1,0,0,0,1,75,1,0,0,1,1,1,100,0,1,1,0,0,-1.08868,5,0,B
'Indian Institute of Technology Patna',1,1,7,0,0,0,0,1,0,0,1,1,5,1,1,1,0,1,1,0,0,0,1,1,1,1,0,1,1,1,1,1,1,1,1,0,1,0,1,1,0,0,0,1,1,1,1,21,0,1,1,0,0,1,0,75,1,8,1,1,1,1,100,0,1,0,0,2.19722,-0.0954386,0,0,B
'NIT Tiruchirappalli',1,1,8,0,0,1,0,1,0,0,1,1,2,1,1,1,0,1,1,2,1,0,0,1,0,1,0,1,1,1,1,1,1,1,1,0,1,0,1,1,0,0,0,1,1,1,0,12.63,0,1,1,0,0,1,1,90,1,0,0,0,1,0,33.3,0,1,0,0,0,-0.312642,0,0,B
'University of Dhaka',1,1,1,1,0,0,0,0,0,0,1,1,10,1,0,1,1,1,1,6,1,1,0,1,1,1,0,1,1,1,1,1,1,1,1,1,1,0,1,1,0,0,1,0,1,1,1,5.74,0,1,1,0,0,1,0,75,1,0,1,1,1,1,83.7,0,1,0,0,0,-0.416599,3650,1,B
'Sant\'Anna School of Advanced Studies',1,1,5,1,1,0,0,0,0,0,1,1,10,1,1,1,0,1,0,4,1,1,1,1,0,1,0,1,1,1,1,1,1,0,1,1,1,0,0,1,0,0,1,0,1,1,1,16.14,0,1,1,0,0,0,0,75,1,2,1,0,1,1,100,0,1,0,0,1.09861,0.00529744,0,0,B
'Indian Institute of Technology ISM Dhanbad',1,1,12,1,1,0,1,1,0,0,0,1,3,1,1,1,0,1,1,12,1,1,1,0,1,1,0,1,1,1,1,1,1,0,1,0,1,1,1,0,0,0,1,0,1,1,1,14.74,0,1,1,1,0,0,0,75,1,0,0,0,1,1,1.7,0,1,1,0,0,0.273627,50,0,B
'Australian National University',1,1,8,1,0,0,0,0,0,0,1,0,0,0,0,1,1,1,1,0,1,1,0,1,0,1,1,1,1,1,1,1,1,1,1,1,1,1,1,0,0,0,0,0,1,1,0,21,0,1,1,0,0,1,0,75,1,0,1,1,1,1,52.8,0,1,1,0,0,-0.829008,3650,1,B
'Indian Institute of Technology Bhilai',1,1,9,1,1,0,0,0,0,0,1,1,2,1,1,1,1,1,1,1,1,1,1,0,0,1,0,1,1,1,1,1,1,1,0,0,1,0,1,1,0,0,0,1,1,1,0,12.63,0,1,0,0,0,0,1,20,1,0,0,1,1,0,81.5,0,1,0,0,0,1.63094,0,0,B
'Hiroshima University',1,1,1,1,1,0,0,0,0,0,1,0,0,0,1,1,0,1,1,0,1,1,0,0,1,1,0,1,1,1,1,1,1,0,1,1,1,1,1,0,1,0,0,1,1,1,0,12.63,0,1,1,0,0,0,0,75,1,0,0,1,1,0,10.8,0,1,0,0,0,-1.54824,7,0,B
'McGill University',0,1,7,1,1,0,1,1,0,0,1,0,0,1,0,1,0,1,1,0,0,0,0,1,0,1,0,1,1,1,1,1,1,1,1,1,1,1,1,0,0,0,0,0,1,1,0,21,0,1,0,0,0,0,0,75,1,0,1,0,1,1,100,0,1,1,0,0,-1.78164,3650,1,B
'University of Banja Luka',1,1,5,1,1,0,0,0,1,1,1,1,4,0,1,1,0,1,1,15,1,1,1,1,0,1,0,1,1,1,1,1,1,1,0,0,1,0,1,1,0,0,1,0,1,1,1,15.43,0,1,1,0,0,0,0,75,1,0,1,0,0,0,91.7,0,1,0,0,0,0.0122837,14,0,B
'University of Ilorin',1,1,4,1,0,0,0,0,1,0,1,0,1,1,0,1,1,1,1,10,1,1,0,0,1,1,0,1,1,1,1,1,1,1,1,1,1,0,1,0,0,0,1,0,1,1,1,2.49,0,1,1,0,0,0,0,90,1,0,1,0,1,1,41.5,0,1,0,0,0,-0.939201,3650,1,B
'North Carolina State University',0,1,5,1,0,0,1,1,0,0,0,1,5,0,0,1,1,1,1,16,1,1,0,0,0,1,0,1,1,1,1,1,1,0,1,1,1,1,1,0,0,0,1,0,1,1,1,12.63,0,1,0,0,0,0,0,90,1,0,1,1,1,1,85,0,1,1,0,0,-1.01928,3650,1,B
'University of South Carolina',1,1,9,1,0,0,0,0,0,0,1,0,0,0,0,1,1,1,1,0,1,1,0,1,1,1,0,1,1,1,1,1,1,1,1,1,1,0,1,0,0,0,0,0,1,1,1,15.91,0,1,1,0,0,0,0,75,1,0,1,1,0,1,66.7,0,1,1,0,0,-0.433631,3650,1,B
'Netaji Subhas University of Technology',1,1,13,0,1,0,0,1,1,0,0,0,0,1,1,1,0,1,1,0,1,1,1,0,1,1,1,1,1,1,1,1,1,1,1,1,1,0,1,0,1,0,0,0,0,1,1,1.63,0,1,1,0,0,1,0,75,1,1,0,0,1,0,69.6,0,1,0,0,0.693147,-0.70843,0,0,B
'Ajou University',1,1,3,0,1,0,0,1,1,0,1,0,0,1,1,1,1,1,0,0,1,1,1,1,0,1,0,1,1,1,1,1,1,1,1,1,1,1,1,1,0,0,1,1,1,1,1,12.63,0,1,1,0,0,1,0,75,1,0,0,0,1,1,100,0,1,0,0,0,2.0531,897,0,B
'Rajarata University of Sri Lanka',1,1,7,1,0,0,0,0,1,1,1,1,6,1,1,1,0,0,1,1,1,1,0,1,1,1,0,1,1,1,1,1,1,0,1,1,1,0,1,0,0,0,1,1,1,1,1,12.63,0,1,1,0,0,0,0,90,1,0,1,1,1,1,82.9,0,1,0,0,0,-0.376515,0,0,B
'Wesleyan University',1,1,5,1,0,0,0,0,0,0,0,1,5,1,0,1,0,1,1,3,1,1,1,1,1,1,1,1,1,1,1,1,1,0,1,1,1,1,1,0,0,0,1,0,1,1,1,21,0,1,1,0,0,0,0,90,1,1,1,1,1,0,63.2,0,1,1,0,0.693147,-0.463462,3650,1,B
'Poznan University of Technology',1,1,0,1,1,0,0,0,0,0,1,0,0,0,1,1,1,1,1,1,1,1,0,1,1,1,0,1,0,1,1,1,1,1,1,1,1,1,1,1,0,0,1,0,0,1,1,1.51,0,1,1,0,0,1,0,75,1,0,0,0,1,1,72,0,1,0,0,0,-0.60287,49,0,B
'University of Southern Queensland',1,1,1,1,0,0,0,0,0,0,1,0,0,0,0,1,1,1,1,0,0,0,0,0,0,1,0,1,1,1,0,1,1,1,1,1,1,1,1,0,0,1,0,0,1,1,1,14.94,0,1,1,0,0,0,0,100,1,0,1,1,1,1,80,0,1,0,0,0,0.582567,3650,1,B
'Vassar College',1,1,5,1,0,0,0,0,1,1,1,1,5,1,0,1,1,1,1,1,1,1,0,0,1,1,0,1,1,1,1,1,1,1,1,1,0,0,0,0,0,0,0,0,1,1,1,8.86,0,1,1,0,0,0,0,100,1,0,1,1,1,1,100,0,1,0,0,0,-1.29688,3650,1,B
'Leibniz University Hannover',1,1,20,1,1,0,0,0,0,0,1,1,5,0,1,1,1,1,1,2,1,1,1,0,0,1,0,1,0,0,1,1,1,1,1,1,1,1,1,0,0,0,0,1,1,1,0,19.8,0,1,1,0,0,0,0,75,1,0,1,1,1,0,95.2,0,1,1,0,0,-0.309797,22,0,B
'Duke University',1,1,3,1,0,0,0,0,0,1,0,0,1,0,0,1,1,1,0,0,1,1,0,1,1,1,0,1,1,1,1,1,1,1,1,1,1,1,1,0,0,0,1,0,0,1,1,21,0,1,1,0,0,0,0,90,1,0,1,1,1,1,97.2,0,1,1,0,0,1.41551,3650,1,B
'Baylor University',1,1,2,1,0,0,0,1,0,0,0,1,10,1,1,1,1,1,1,3,0,0,0,0,0,1,0,1,1,1,1,1,1,1,1,0,1,0,0,0,0,0,0,0,1,1,1,21,0,1,0,0,0,0,0,75,1,0,1,1,1,1,29.2,0,1,1,0,0,-0.144638,0,0,B
'Universiti Malaysia Sabah',1,1,7,1,1,1,1,1,0,0,1,1,10,0,0,0,1,1,0,0,0,0,0,1,1,1,0,1,1,1,1,1,1,1,1,1,1,1,1,0,0,0,0,0,1,1,1,15.5,0,1,1,1,0,0,0,75,1,0,0,1,1,0,62.2,0,1,1,0,0,1.02369,3650,1,B
'University of Rwanda',1,1,5,1,0,0,0,1,0,0,1,1,8,1,1,1,1,1,1,0,1,1,1,1,1,1,0,1,1,1,1,1,1,0,1,0,0,0,1,0,1,0,1,0,1,1,1,3.54,0,1,1,0,0,0,0,75,1,0,1,0,1,0,60,0,1,0,0,0,-0.0822986,0,0,B
'Universiti Utara Malaysia',1,1,5,0,0,0,0,1,1,1,0,1,5,0,1,1,0,1,0,3,1,0,1,0,0,1,0,1,1,1,1,1,1,1,1,1,1,1,0,0,0,0,1,0,1,1,1,21,0,1,1,0,0,0,0,75,1,0,1,1,1,1,93.3,0,1,1,0,0,-0.458428,127,0,B
'University of Chittagong',1,1,11,1,0,0,0,0,0,0,1,1,8,1,0,1,1,1,1,4,1,1,1,0,1,1,0,1,1,1,1,1,1,1,1,0,1,0,1,1,0,0,1,0,1,1,1,4.21,0,1,1,0,0,0,0,90,1,0,1,0,1,1,13,0,1,0,0,0,-0.799841,3650,1,B
'BI Norwegian Business School',1,1,2,1,1,0,0,1,1,1,0,0,0,0,1,1,0,1,1,0,1,1,0,1,0,1,0,0,1,0,1,1,1,1,1,0,1,1,1,1,0,1,0,0,1,1,1,21,0,1,0,0,0,0,0,90,1,0,1,1,1,1,85.7,0,1,0,0,0,-0.194613,0,0,B
'Warsaw University of Life Sciences',1,1,10,1,1,0,0,1,1,1,0,1,9,0,1,1,0,1,1,5,1,1,1,0,0,1,0,1,1,1,1,1,1,0,0,0,0,1,1,1,0,0,1,1,1,1,1,21,0,1,1,0,0,0,0,90,1,0,1,0,1,0,51.4,0,1,1,0,0,0.863538,0,0,B
'Harvard University',1,1,1,1,0,0,0,0,1,1,1,0,0,1,0,1,0,1,1,0,1,1,0,0,0,1,0,1,1,1,1,1,1,1,1,1,1,1,1,0,0,0,0,0,1,1,1,15.13,0,1,0,0,0,0,0,90,1,0,1,1,1,1,76.2,0,1,1,0,0,-1.52621,3650,1,B
'Autonomous University of Barcelona',1,1,5,1,0,0,1,1,0,0,1,1,8,1,0,1,0,1,0,0,0,0,0,1,0,1,0,1,1,1,1,1,1,1,1,0,1,1,1,1,0,0,1,1,0,1,1,18.73,0,1,0,0,0,1,0,75,1,0,1,1,1,0,100,0,1,1,0,0,-0.0172737,3650,1,B
'University of the Punjab',1,1,6,0,0,0,0,1,0,0,1,1,7,1,0,1,1,1,1,0,1,1,0,0,1,1,0,1,1,1,1,1,1,1,1,1,1,1,1,0,0,0,0,1,1,1,1,21,0,1,1,1,0,0,0,75,1,0,1,0,1,1,17.1,0,1,1,0,0,0.507287,3650,1,B
'Mid-Western University',1,1,7,0,0,0,0,0,1,1,1,1,7,1,1,1,0,1,1,11,1,1,1,1,1,1,0,1,1,1,1,1,1,0,1,0,0,0,1,1,0,0,1,0,1,1,1,14.68,0,1,1,0,0,0,0,100,1,0,1,1,1,1,98.1,0,1,0,0,0,0.242831,4,0,B
'University of Tours',1,1,13,1,1,0,0,0,1,1,1,1,10,1,0,1,1,1,1,0,1,1,0,0,0,1,1,1,1,1,1,1,1,0,1,1,1,1,1,1,0,0,0,1,1,0,1,11.05,0,1,1,0,0,0,1,75,1,0,1,1,1,0,90.9,0,1,0,0,0,-0.336228,3650,1,B
'Princeton University',1,1,0,1,0,0,0,0,1,1,1,0,1,1,1,1,1,1,1,0,1,1,0,0,0,1,0,1,1,0,1,1,1,1,1,1,1,1,1,0,0,0,1,0,1,1,1,8.86,0,1,0,0,0,0,0,90,1,0,1,1,1,1,87.5,0,1,1,0,0,-1.70665,5,0,B
'Polytechnic University of the Philippines',1,1,5,1,0,0,0,1,0,0,1,0,0,1,1,1,0,1,0,0,0,0,0,0,1,1,1,1,1,1,1,1,1,0,1,1,1,1,1,1,0,0,1,0,1,1,1,2.53,0,1,1,0,0,0,0,75,1,1,1,1,1,0,100,0,1,0,0,0.693147,-0.101645,0,0,B
'NIT Raipur',1,1,10,0,0,0,0,0,0,0,1,0,0,1,0,1,1,1,1,0,1,1,1,1,1,1,0,1,1,1,1,1,1,1,1,0,1,1,1,0,0,1,1,0,1,1,1,12.63,0,1,1,0,0,0,0,75,1,2,1,0,1,0,30.8,0,0,0,0,1.09861,-0.701749,3650,1,B
'Okayama University',1,1,5,1,0,0,0,0,0,0,0,0,0,0,1,1,0,1,1,1,1,0,0,0,0,1,0,1,1,1,1,1,1,0,1,1,1,0,1,0,0,0,1,1,1,1,1,4.17,0,1,1,0,0,0,0,75,1,1,0,1,1,0,65.7,0,1,0,0,0.693147,-0.218432,0,0,B
'University of Wroclaw',1,1,2,1,1,0,0,1,0,0,0,0,0,0,1,1,0,1,0,0,1,0,0,1,0,1,0,1,1,1,1,1,1,1,1,0,1,1,1,1,0,0,1,1,0,1,1,21,0,1,1,0,0,0,0,90,1,6,1,0,1,0,75,0,1,1,0,1.94591,1.35992,23,0,B
'University of Ottawa',1,1,4,0,1,0,0,0,0,0,1,1,3,0,1,1,0,1,1,0,1,1,0,1,0,1,0,1,1,1,1,1,1,0,1,1,1,1,1,1,0,0,1,0,0,1,1,13.79,0,1,1,0,0,0,0,100,1,0,1,1,1,1,88.9,0,1,1,0,0,0.0826208,0,0,B
'Baylor College of Medicine',1,1,5,1,0,1,0,0,1,1,1,0,0,0,0,1,1,1,1,0,0,0,0,0,0,1,0,1,1,1,1,1,1,1,0,1,1,1,1,1,0,0,1,0,1,1,1,12.63,0,1,1,0,0,0,0,100,1,0,0,1,1,0,100,0,1,0,0,0,0.467531,3650,1,B
'University of Oklahoma',1,1,7,1,0,0,0,1,0,0,1,0,0,1,1,1,1,1,1,0,1,1,1,1,1,1,1,1,1,1,1,1,1,1,1,0,1,0,0,0,0,0,0,0,1,1,0,12.98,0,1,0,0,0,0,0,75,1,0,1,1,0,1,100,0,1,1,0,0,0.564069,4,0,B
'Quaid-i-Azam University',1,1,6,0,0,0,1,1,0,0,1,1,10,1,1,1,0,1,1,11,1,1,0,1,0,1,1,1,1,1,1,1,1,1,1,1,1,0,1,1,0,0,1,0,1,1,1,12.63,0,1,1,0,0,0,0,90,1,0,1,0,1,1,72.7,0,1,0,0,0,0.129586,242,0,B
'Bahir Dar University',1,1,7,1,0,0,0,0,0,1,0,0,0,1,1,1,0,1,1,9,1,1,0,0,0,1,0,1,1,1,1,1,1,1,1,0,0,0,0,1,0,0,1,0,1,1,1,21,0,1,1,0,0,0,0,75,1,0,1,0,1,1,84.2,0,1,0,0,0,0.118253,12,0,B
'University of California, Riverside',0,1,4,1,0,0,0,1,0,0,1,1,10,0,1,1,1,1,1,5,1,1,1,1,1,1,0,1,1,0,1,1,1,1,1,1,1,1,0,0,0,0,1,0,1,1,1,7.24,0,1,0,0,0,0,1,100,1,0,1,1,1,1,86.7,0,1,1,0,0,1.64919,0,0,B
'Sabaragamuwa University of Sri Lanka',1,1,7,0,0,0,0,1,1,1,1,1,2,1,1,1,0,0,1,18,1,0,1,1,0,1,0,1,1,1,1,1,1,1,1,1,0,0,1,1,0,0,1,0,1,1,1,4.06,0,1,1,0,0,0,0,75,1,1,1,1,1,1,90.5,0,1,0,0,0.693147,-0.644393,0,0,B
'Uppsala University',1,1,4,1,1,0,0,0,0,0,0,1,9,0,1,1,0,1,0,20,1,1,1,1,0,1,0,0,1,1,1,1,1,0,1,1,1,1,1,0,0,0,1,0,1,1,0,6.93,0,1,1,0,0,0,0,90,1,0,1,1,1,1,31,0,1,0,0,0,3.17772,0,0,B
'TU Wien',1,1,3,1,1,0,0,0,0,1,1,1,10,1,1,1,0,1,1,12,1,1,1,1,0,1,0,1,1,0,1,1,1,0,1,1,0,1,1,1,0,0,0,0,1,1,1,19.43,0,1,0,0,0,1,1,100,1,0,1,1,1,0,93.3,0,1,1,0,0,-0.477601,1,0,B
'University of Santiago de Compostela',1,1,10,1,1,0,0,0,0,0,0,0,0,0,1,0,1,1,0,17,1,1,1,0,0,1,0,1,0,1,1,1,1,1,0,0,1,0,1,1,0,0,0,0,0,1,1,18.73,0,1,1,0,0,0,0,75,1,0,1,0,1,0,100,0,1,1,0,0,-1.42958,0,0,B
'University of Colombo',1,1,9,1,0,0,0,1,0,0,1,1,10,1,0,1,0,1,1,20,1,1,0,1,0,1,0,1,1,1,1,1,1,1,1,1,1,0,1,0,0,0,0,0,1,1,1,5.74,0,1,1,0,0,0,0,75,1,0,1,0,1,1,93.8,0,1,0,0,0,-0.654496,3650,1,B
'University of Madeira',1,1,2,1,1,0,0,0,1,1,0,1,8,0,1,1,1,1,0,1,0,0,0,1,0,1,0,1,1,1,0,1,1,0,1,0,1,0,1,0,0,1,1,0,1,1,1,19.63,0,1,1,0,0,0,1,75,1,0,1,0,1,0,100,0,1,0,0,0,-1.40737,0,0,B
'Transilvania University of Brasov',1,1,10,1,1,0,0,0,0,0,0,0,1,0,0,1,1,1,1,0,1,1,0,1,1,1,0,1,1,1,1,1,1,1,1,0,0,1,1,0,0,1,0,0,1,1,0,3.54,0,1,0,0,0,1,0,20,1,2,0,1,1,0,90.9,0,1,1,0,1.09861,0.369123,3650,1,B
'Tajik National University',1,1,9,1,1,0,0,0,0,0,0,1,10,1,1,1,0,1,0,14,0,0,1,0,0,1,0,1,1,1,1,1,1,1,1,1,0,0,1,0,0,0,0,0,0,1,0,21,0,1,0,0,0,0,0,75,1,15,1,0,1,1,14.3,0,1,0,0,2.77259,2.3637,98,0,B
'University of Exeter',1,1,7,1,0,0,1,1,0,0,1,0,0,0,0,1,1,0,1,0,0,0,0,1,0,1,0,0,1,1,1,1,1,1,1,1,1,1,1,0,0,0,0,1,1,1,1,12.63,0,1,1,0,0,1,0,75,1,0,1,1,1,1,100,0,1,1,0,0,-1.28801,3650,1,B
'IIIT Hyderabad',1,1,6,0,0,0,0,1,0,0,1,0,0,1,1,1,1,1,1,9,1,1,1,1,1,1,0,1,1,0,1,1,1,1,1,1,1,1,1,0,0,0,0,0,1,1,1,10.17,0,1,0,0,0,1,0,90,1,1,0,1,1,1,0,0,1,0,0,0.693147,-0.156216,0,0,B
'Flinders University',1,1,8,1,0,0,0,1,1,2,1,0,0,0,1,1,0,1,1,0,1,1,0,1,1,1,0,1,1,1,1,1,1,0,1,1,1,1,1,0,0,0,0,0,0,1,0,12.63,0,1,1,0,0,0,1,75,1,0,1,1,1,1,21.9,0,1,1,0,0,0.292366,6,0,B
'Odesa I. I. Mechnikov National University',1,1,5,1,1,0,0,1,0,0,1,0,0,0,1,1,0,1,1,0,0,0,1,1,0,1,0,1,1,1,1,1,1,1,1,1,1,0,0,0,0,0,0,1,1,1,0,7.46,0,0,1,0,0,0,0,75,1,0,1,1,1,1,94.4,0,1,0,0,0,-0.896474,109,0,B
'Vellore Institute of Technology',1,1,8,0,0,0,1,1,0,0,1,0,0,1,0,1,0,1,1,20,1,1,1,0,1,1,0,1,1,1,1,1,1,1,1,1,1,0,1,1,0,0,0,1,1,1,1,12.63,0,1,1,0,0,0,0,90,1,0,1,1,1,1,22.9,0,1,0,0,0,2.04856,3650,1,B
'Indian Institute of Technology Mandi',1,1,6,0,0,0,0,1,0,0,1,0,0,1,1,1,0,1,0,0,1,1,1,0,0,1,0,1,1,1,1,1,1,0,1,1,1,1,1,1,0,0,1,0,1,1,1,15.43,0,1,1,0,0,0,0,75,1,0,0,1,1,1,45,0,1,0,0,0,-1.27417,0,0,B
'Tokushima University',1,1,4,0,0,0,0,0,1,1,1,0,0,0,1,1,1,1,0,4,1,1,1,0,1,1,0,1,1,1,1,1,1,1,0,0,1,0,1,0,1,0,1,0,1,1,1,21,0,1,1,0,0,0,0,75,1,2,1,0,1,0,17.4,0,1,1,0,1.09861,0.577807,8,0,B
'University of Gothenburg',0,1,7,1,1,0,0,1,0,0,1,1,8,0,1,1,0,1,0,3,1,0,1,0,0,1,0,1,1,0,1,1,1,0,1,1,1,1,1,1,0,1,1,0,0,1,1,1.99,0,1,0,0,0,0,0,75,1,0,1,0,1,1,0,0,1,1,0,0,1.15801,0,0,B
'University of Kentucky',0,1,4,1,0,1,0,1,1,1,0,1,6,0,0,1,1,1,0,0,0,0,0,0,0,1,0,1,1,1,1,1,1,1,1,1,1,1,1,0,0,0,0,0,1,1,0,21,0,1,0,0,0,0,0,100,1,0,0,0,1,1,75,0,1,1,0,0,1.10145,3650,1,B
'Keio University',1,1,0,0,0,0,0,1,0,0,1,1,10,1,1,1,0,1,1,0,1,1,0,1,0,1,0,1,1,1,1,1,1,1,1,1,1,0,1,0,0,0,0,1,1,1,1,17.1,0,1,1,0,0,0,0,75,1,0,1,1,1,0,21.5,0,1,1,0,0,-0.05188,4,0,B
'University of Hamburg',1,1,4,1,1,0,0,0,0,0,0,1,2,1,1,1,1,1,1,2,1,1,1,0,1,1,0,0,1,0,1,1,1,0,1,1,1,0,1,0,0,0,0,1,1,1,1,8.32,0,1,1,0,0,1,0,100,1,0,1,1,0,1,100,0,1,1,0,0,1.24094,0,0,B
'University of Yangon',1,1,9,1,1,1,0,0,1,2,1,1,4,0,0,1,0,1,1,0,0,0,1,1,0,1,0,1,1,1,1,1,1,1,1,0,0,1,1,0,1,0,1,0,1,1,0,12.63,0,1,1,0,0,1,0,90,1,0,1,0,1,1,3.4,0,0,0,0,0,-1.04457,3650,1,B
'Southern Methodist University',0,1,4,1,0,0,0,1,0,0,0,0,0,0,1,1,1,1,1,6,1,1,0,0,1,1,1,1,1,0,1,1,1,1,1,1,1,1,1,0,0,0,0,0,1,1,1,5.74,0,1,0,1,0,0,0,75,1,0,1,1,0,1,21.1,0,1,0,0,0,0.515178,0,0,B
'University of Delaware',1,1,4,1,0,0,0,1,0,0,1,1,4,1,0,1,0,1,1,0,0,0,0,0,1,1,0,1,1,1,1,1,1,1,1,1,1,0,1,0,0,0,0,0,1,1,1,10.89,0,1,1,0,0,0,0,90,1,0,1,1,1,0,94.4,0,1,1,0,0,0.102716,3650,1,B
'University of Opole',1,1,8,0,1,0,0,0,0,0,1,1,10,1,1,1,1,1,1,0,0,0,1,1,0,1,0,1,1,1,1,1,1,1,0,0,0,1,1,0,0,0,1,0,1,1,1,12.63,0,1,1,0,0,0,0,90,1,0,0,0,1,0,71.1,0,1,1,0,0,0.441494,13,0,B
'Hanze University of Applied Sciences',1,1,5,1,1,1,0,0,1,1,1,0,0,0,1,1,0,1,1,15,1,1,1,1,1,1,0,0,0,0,1,1,1,1,0,1,1,1,1,1,0,0,0,0,0,1,1,12.63,0,1,0,0,0,0,1,100,1,0,1,0,1,1,99.2,0,1,0,0,0,0.152635,0,0,B
'Kobe University',1,1,3,0,0,0,0,0,1,1,0,1,10,1,0,1,1,1,1,1,0,0,0,1,0,1,0,1,1,1,1,1,1,1,1,1,1,0,1,0,0,0,1,1,1,1,1,15.91,0,1,1,0,0,0,1,75,1,0,1,1,1,0,19.5,0,1,0,0,0,-0.307126,3650,1,B
'Lulea University of Technology',1,1,8,1,1,0,0,0,0,0,0,0,1,0,1,1,1,1,0,11,1,1,1,0,0,1,0,0,1,0,1,1,1,0,1,1,0,1,1,0,0,0,1,0,0,1,1,16.86,0,1,1,0,0,0,0,75,1,0,1,1,1,1,87.5,0,1,1,0,0,0.0595182,0,0,B
'Imperial College London',1,1,10,1,0,0,1,1,0,0,1,0,0,1,0,1,0,0,1,0,1,1,0,0,0,1,0,1,1,1,1,1,1,1,1,1,1,1,1,0,0,0,1,1,1,1,1,17.51,0,1,0,0,0,0,0,100,1,0,1,1,1,1,20,0,1,1,0,0,-0.834306,3650,1,B
'Hasselt University',1,1,5,1,1,0,0,1,0,0,0,1,8,0,0,0,0,1,0,1,1,0,0,1,0,1,0,1,1,1,1,1,1,0,1,1,1,1,1,1,0,1,0,0,1,1,0,21,0,1,0,0,0,0,1,90,1,0,0,1,1,1,97.3,0,1,0,0,0,-0.408733,3650,1,B
'Comilla University',1,1,6,0,0,0,0,0,1,1,1,0,0,1,0,1,1,1,1,5,1,1,1,0,0,1,0,1,1,1,1,1,1,1,1,1,1,0,1,1,0,0,0,0,1,1,0,15.43,0,1,1,0,0,0,0,75,1,2,1,0,1,0,50,0,1,0,0,1.09861,-1.09314,3650,1,B
'Simon Fraser University',1,1,5,1,0,0,0,1,0,0,1,0,0,0,0,1,0,1,1,1,1,1,0,1,1,1,0,1,1,1,1,1,1,1,1,1,1,0,1,1,0,0,0,0,1,1,1,21,0,1,1,0,0,0,1,90,1,0,1,1,1,1,41,0,1,0,0,0,0.842497,3650,1,B
'Jomo Kenyatta University of Agriculture and Technology',1,1,7,1,0,0,0,0,1,1,1,1,2,1,0,1,0,1,1,1,1,1,0,1,0,1,0,1,1,1,1,1,1,1,1,1,1,1,1,0,0,0,0,0,1,1,0,21,0,1,1,0,0,0,0,75,1,0,1,0,0,0,90,0,1,0,0,0,-0.123391,3650,1,B
'Jagannath University',1,1,10,0,0,0,0,0,0,1,1,0,0,1,1,1,1,1,1,2,1,1,0,1,0,1,0,1,1,1,1,1,1,0,1,0,1,0,1,1,0,0,1,0,1,1,1,21,0,1,1,0,0,0,1,75,1,1,1,1,1,1,36.5,0,1,0,0,0.693147,-1.15929,0,0,B
'University of Bath',0,1,3,1,0,0,1,1,0,0,0,0,0,0,1,1,0,0,1,3,1,1,1,1,1,1,0,0,1,1,1,1,1,0,1,1,1,1,1,0,0,0,1,0,1,1,1,15.74,0,1,0,0,0,1,0,75,1,0,1,1,1,1,81,0,1,1,0,0,0.400947,0,0,B
'Copperbelt University',1,1,20,1,0,0,0,1,1,0,0,1,3,1,0,1,1,1,0,2,1,1,0,1,1,1,0,1,1,1,1,1,1,1,1,1,1,1,1,1,0,0,0,0,1,1,1,1,0,1,1,0,0,0,0,75,1,0,0,1,1,1,45.5,0,1,0,0,0,-0.826864,3650,1,B
'Ghent University',1,1,20,1,1,0,0,0,0,0,0,1,2,0,0,1,1,1,1,1,1,1,1,0,0,1,0,1,1,1,1,1,1,1,1,1,1,0,0,1,0,0,0,0,1,1,1,12.63,0,1,1,0,0,0,0,100,1,0,1,1,1,0,100,0,1,1,0,0,-0.0292337,3650,1,B
'Silliman University',1,1,7,1,0,0,0,1,1,2,1,1,2,0,1,1,1,1,1,0,0,0,0,1,1,1,0,1,1,0,1,1,1,1,1,1,1,1,1,1,0,0,0,0,1,1,0,5.74,0,1,1,1,0,1,0,90,1,3,1,0,1,1,96.7,0,1,0,0,1.38629,-0.369533,5,0,B
'Hanyang University',1,1,1,1,1,0,0,1,0,0,1,1,10,1,0,1,1,1,0,0,1,1,0,0,1,1,0,1,1,1,1,1,1,1,1,0,1,1,1,0,1,0,0,0,1,1,0,12.63,0,1,1,0,0,0,0,100,1,0,1,0,1,1,88.9,0,1,0,0,0,0.386975,3650,1,B
'University of Florida',1,1,2,0,0,0,0,1,0,0,0,1,2,1,0,1,1,1,1,1,1,1,0,1,0,1,1,1,1,1,1,1,1,1,1,1,1,0,1,1,0,0,1,0,1,1,1,15.43,0,1,1,0,0,0,0,90,1,0,1,1,1,1,72.2,0,1,1,0,0,-0.959204,3650,1,B
'Chinese University of Hong Kong',1,1,20,1,0,0,0,1,0,0,1,0,0,0,1,1,0,1,1,1,1,1,1,0,0,1,0,1,1,1,1,1,1,0,1,0,1,0,1,0,0,0,0,1,1,1,1,6.29,0,1,1,0,0,0,0,75,1,15,0,1,1,1,89.4,0,1,1,0,2.77259,-0.642438,0,0,B
'University of Warwick',1,1,1,1,0,0,1,1,0,0,1,0,1,0,1,1,1,0,1,2,1,1,1,1,0,1,0,1,1,1,1,1,1,0,1,1,1,1,1,1,0,0,0,0,1,1,1,19.56,0,1,1,0,0,0,0,90,1,0,1,1,1,1,25.9,0,1,1,0,0,-1.248,11,0,B
'University of Eastern Finland',1,1,11,1,1,0,0,0,0,0,0,1,10,0,1,1,0,1,0,20,1,1,1,0,0,1,0,0,1,1,0,1,1,0,1,1,1,1,1,0,0,0,0,0,1,1,1,21,0,1,1,0,0,1,0,100,1,0,1,1,1,1,52.7,0,1,0,0,0,0.0350266,0,0,B
'University of British Columbia',0,1,9,1,0,0,0,0,0,0,0,0,0,0,0,1,1,1,1,0,0,0,0,0,0,0,0,1,1,1,1,1,1,0,1,1,1,1,1,0,0,0,0,0,1,1,1,15.91,0,0,0,0,0,0,0,100,1,1,1,1,1,1,100,0,1,1,0,0.693147,-0.361538,3650,1,B
'DePaul University',1,1,3,1,0,0,0,0,1,1,0,1,10,0,0,1,1,1,1,0,1,1,0,1,1,1,0,1,1,1,1,0,1,1,1,1,1,1,1,0,0,0,1,0,1,1,1,17.04,0,1,1,0,0,0,0,100,1,0,1,0,1,1,71.4,0,1,1,0,0,-0.00728816,3650,1,B
'Jahangirnagar University',1,1,14,0,0,0,0,0,1,1,1,0,0,1,1,1,1,1,1,1,1,1,0,1,0,1,0,1,1,1,1,1,1,0,1,1,0,0,1,1,0,0,0,0,1,1,0,12.63,0,1,1,0,0,0,0,75,1,0,1,0,1,1,92.9,0,1,0,0,0,-0.831778,1,0,B
'Czech University of Life Sciences Prague',1,1,6,1,0,0,0,0,0,0,1,0,0,1,1,1,1,0,1,5,1,1,1,0,0,1,0,1,1,1,1,1,1,0,1,0,1,1,1,0,0,0,1,0,1,1,1,15.43,0,1,1,0,0,0,0,75,1,0,1,0,1,0,11.1,0,1,0,0,0,-0.62974,13,0,B
'University of Messina',1,1,6,1,0,0,0,1,1,1,0,0,0,0,1,1,1,1,0,0,1,1,0,0,1,1,0,1,1,1,0,1,1,1,0,0,0,1,1,1,0,0,1,1,0,1,1,15.43,0,1,1,0,0,0,0,100,1,0,1,0,1,0,100,0,1,0,0,0,-1.13096,0,0,B
'University of Zimbabwe',1,1,7,1,0,0,0,0,0,0,0,1,6,1,0,1,0,1,1,0,0,0,0,0,0,1,0,1,1,1,1,1,1,0,1,1,1,0,1,1,0,1,0,0,1,1,0,5.33,0,1,0,0,0,0,0,75,1,1,1,1,1,1,47.8,0,1,0,0,0.693147,-0.191129,3650,1,B
'Mendel University in Brno',1,1,14,1,1,0,0,0,0,0,1,1,4,1,0,1,1,1,1,17,0,0,0,0,0,1,0,1,1,1,1,1,1,0,1,1,1,0,1,1,0,0,0,1,0,1,0,17.04,0,1,0,0,0,0,0,75,1,0,1,0,1,0,66.7,0,1,1,0,0,-0.690467,3650,1,B
'Bucharest University of Economic Studies',1,1,6,1,1,0,0,1,0,0,0,0,0,0,0,1,1,0,1,0,0,0,0,1,0,1,0,0,1,1,1,1,1,1,1,1,0,1,1,1,0,0,1,1,1,1,1,15.52,0,1,1,0,0,0,0,90,1,0,1,0,1,0,52.6,0,1,0,0,0,-1.53133,3650,1,B
'Cornell University',1,1,1,1,0,0,0,0,0,0,1,1,5,0,1,1,1,1,1,6,0,0,1,0,1,1,0,1,1,1,1,1,1,0,1,1,1,1,1,0,0,0,0,0,1,1,1,13.39,0,1,1,0,0,0,0,50,1,0,1,1,1,1,65.6,0,1,1,0,0,-0.0568002,3650,1,B
'West Pomeranian University of Technology',1,1,5,1,0,1,0,1,1,1,1,0,0,1,1,1,0,0,0,0,0,0,1,1,0,1,0,1,0,1,1,1,1,1,1,0,0,0,1,0,0,0,1,1,0,1,0,7.46,0,1,0,0,0,0,0,75,1,0,1,0,1,0,100,0,1,1,0,0,-0.121531,18,0,B
'IPB University',1,1,5,1,1,0,0,1,0,0,1,1,9,1,1,1,1,1,1,20,1,0,1,0,0,1,0,1,1,0,1,1,1,1,0,0,1,1,1,0,0,0,0,0,0,1,0,5.49,0,1,1,0,0,0,0,90,1,0,1,1,1,1,100,0,1,1,0,0,-1.3849,0,0,B
'University of Dundee',1,1,5,1,0,0,0,1,0,0,1,0,0,0,1,1,0,0,1,0,1,1,0,0,0,1,0,1,1,1,1,1,1,1,0,1,1,0,1,0,0,0,0,0,1,1,1,10.55,0,1,1,1,0,0,1,100,1,0,1,1,1,1,38.9,0,1,1,0,0,-0.811755,7,0,B
'University of Antwerp',1,1,3,1,1,0,0,0,0,0,1,0,1,0,1,1,1,1,0,0,0,0,0,0,0,0,0,0,0,1,1,1,1,0,1,1,1,1,1,1,0,0,0,0,1,1,0,12.07,0,0,0,0,0,0,0,90,1,0,1,1,1,0,11.1,0,1,0,0,0,0.759107,14,0,B
'University of Manitoba',1,1,5,1,0,0,0,0,0,0,1,1,3,0,0,1,1,1,0,0,1,1,0,1,0,1,0,1,1,1,1,1,1,1,1,1,1,1,0,0,0,0,1,0,1,1,1,15.91,0,1,1,0,0,0,1,90,1,0,1,1,1,1,41.2,0,1,1,0,0,0.390673,3650,1,B
'University of Copenhagen',1,1,3,1,1,0,0,0,0,0,0,1,2,0,1,1,0,1,0,0,1,1,1,0,1,1,0,0,1,1,1,1,1,0,1,1,1,0,1,0,0,0,0,0,0,1,1,19.8,0,1,0,0,0,1,0,100,1,0,1,1,1,1,16.7,0,1,0,0,0,-0.214012,0,0,B
'Charles Sturt University',1,1,4,1,0,1,0,1,0,0,0,0,0,0,1,1,1,1,0,0,1,1,0,1,1,1,0,0,1,0,1,1,1,1,1,1,1,1,1,1,0,0,0,0,1,1,1,6.19,0,1,1,0,0,0,0,75,1,2,1,0,1,1,41.7,0,1,1,0,1.09861,0.124046,5,0,B
'Hawassa University',1,1,2,1,1,0,0,1,0,0,1,1,9,1,1,1,0,1,1,2,1,1,0,0,1,1,0,1,1,1,1,1,1,0,1,0,1,0,1,1,0,0,1,0,1,0,1,15.43,0,1,1,0,0,0,1,75,1,0,1,1,1,1,10.5,0,1,0,0,0,-0.728272,7,0,B
'Mount Holyoke College',1,1,2,1,0,0,0,0,0,0,1,1,7,0,1,1,1,1,1,0,1,1,0,1,1,1,0,1,1,1,1,1,1,1,0,1,1,1,0,0,0,0,1,0,1,1,1,15.91,0,1,1,1,0,0,1,90,1,0,0,1,1,1,100,0,1,0,0,0,-1.13281,79,0,B
'Rice University',1,1,5,1,0,0,0,0,0,0,0,0,0,1,0,1,0,1,1,0,1,1,0,1,0,1,1,1,1,1,1,1,1,1,1,1,1,1,0,0,0,0,1,0,0,1,1,15.91,0,1,1,0,0,1,0,75,1,0,1,1,1,0,63,0,1,1,0,0,-1.21816,3650,1,B
'Strathmore University',1,1,7,1,1,0,0,0,0,0,0,1,4,1,0,1,1,1,1,0,1,0,0,0,0,1,0,1,1,1,0,1,1,1,1,1,1,1,1,0,0,0,0,0,1,1,1,21,0,1,1,0,0,0,0,90,1,1,1,1,1,0,69.2,0,1,0,0,0.693147,1.91593,3650,1,B
'University of San Diego',1,1,7,1,0,0,0,1,0,0,1,1,6,1,0,1,1,1,1,0,0,1,0,1,1,1,0,1,1,1,1,1,1,1,1,1,1,1,0,0,0,0,0,0,0,1,0,21,0,1,1,1,0,1,1,90,1,0,1,1,0,1,84.6,0,1,0,0,0,0.431691,3650,1,B
'University of Sydney',1,1,6,1,0,1,1,1,0,0,0,0,1,0,0,1,1,0,1,0,1,1,0,1,0,1,0,1,1,1,1,1,1,1,1,1,1,0,1,1,0,0,1,0,0,1,1,18.42,0,1,1,0,0,0,0,90,1,0,1,1,1,1,38.9,0,1,1,0,0,0.0609866,3650,1,B
'Toyohashi University of Technology',1,1,7,1,0,0,0,0,0,0,0,0,0,0,1,1,0,1,1,0,0,0,0,0,0,1,0,1,1,1,1,1,1,1,0,0,0,1,1,0,0,0,1,1,1,1,1,12.63,0,1,1,0,0,0,0,75,1,0,1,1,0,0,57.9,0,1,0,0,0,-1.30122,112,0,B
'TU Dresden',1,1,2,1,1,1,0,0,0,0,1,1,10,0,1,1,1,1,1,6,1,1,1,0,0,1,0,0,0,1,0,1,1,0,0,1,0,1,1,1,0,0,0,0,1,1,1,21,0,1,1,0,0,0,0,100,1,0,1,1,1,0,100,0,1,1,0,0,2.73396,0,0,B
'University of Belgrade',1,1,6,1,0,0,0,0,0,0,1,0,0,1,1,1,0,1,1,4,1,0,0,0,0,1,0,1,1,1,1,1,1,1,1,0,1,0,1,0,0,0,0,0,0,1,0,12.63,0,1,0,0,0,0,0,90,1,0,1,0,1,1,0,0,1,0,0,0,0.385066,133,0,B
'Polytechnic University of Valencia',1,1,5,0,1,0,0,1,0,0,1,1,2,1,0,1,1,1,1,0,1,1,0,1,1,1,0,1,1,1,0,1,1,1,1,1,1,1,1,0,0,0,1,1,1,1,1,18.88,0,1,1,0,0,1,0,75,1,0,0,1,1,0,69.2,0,1,1,0,0,-0.0323211,3650,1,B
'Kent State University',1,1,2,0,0,0,0,1,1,1,1,1,4,0,0,1,1,1,1,13,1,1,0,0,1,1,0,1,1,1,1,1,1,1,1,1,1,1,1,1,0,0,0,0,1,1,0,19.63,0,1,1,1,0,0,0,75,1,0,1,1,1,1,79.2,0,1,1,0,0,-0.118121,3650,1,B
'Colby College',0,1,5,1,0,0,0,0,0,0,0,0,1,1,0,1,1,1,1,6,1,0,0,0,1,1,0,1,1,0,1,1,1,1,1,1,1,0,1,0,0,0,1,1,0,1,1,21,0,1,0,0,0,1,0,90,1,3,1,1,1,1,100,0,1,0,0,1.38629,-0.817297,3650,1,B
'University of Illinois Urbana-Champaign',0,1,3,1,0,0,0,1,0,0,1,1,4,1,0,1,1,1,1,0,1,1,0,1,1,1,0,1,1,1,1,1,1,0,1,1,1,1,1,0,0,0,0,0,1,1,1,14.52,0,1,0,0,0,1,0,90,1,0,1,1,1,1,27.6,0,1,1,0,0,0.340125,3650,1,B
'Houari Boumediene University of Science and Technology',1,1,7,1,0,0,0,0,0,0,0,1,3,1,1,1,0,1,0,2,1,1,0,0,0,1,0,1,1,1,1,1,1,0,1,0,1,0,1,0,0,0,1,0,1,1,1,21,0,1,1,0,0,0,0,75,1,0,1,0,1,0,37.1,0,1,0,0,0,-0.426743,0,0,B
'Banaras Hindu University',1,1,1,0,0,0,0,0,0,0,1,1,4,1,1,1,0,1,1,2,1,1,1,0,0,1,1,1,0,1,1,1,1,1,0,0,1,1,1,1,0,1,0,1,1,1,0,12.63,0,1,1,0,0,0,0,75,1,4,0,0,1,0,21.4,0,0,0,0,1.60944,-0.0118489,14,0,B
'NOVA University Lisbon',1,1,8,1,1,0,0,0,0,0,1,1,10,0,1,1,0,1,1,8,1,1,1,1,1,1,0,1,1,1,1,1,1,0,0,0,0,0,1,1,0,0,1,0,1,1,1,10.37,0,1,1,0,0,1,0,90,1,0,1,0,1,0,44.7,0,1,0,0,0,-0.483386,0,0,B
'Washington State University',0,1,7,1,0,0,0,0,1,1,0,1,4,1,0,1,1,1,1,0,1,1,0,1,1,1,0,1,1,1,1,1,1,1,1,1,0,1,0,1,0,0,0,0,1,1,0,15.13,0,1,0,0,0,0,0,90,1,0,1,1,1,1,60,0,1,0,0,0,0.169215,3650,1,B
'Universite Paris Cite',1,1,5,1,1,0,0,0,0,0,1,0,0,0,1,1,1,1,1,0,0,0,0,0,0,1,0,0,1,1,1,1,0,1,1,1,0,1,1,1,0,0,0,0,0,1,1,10.05,0,1,1,0,0,0,0,75,1,1,1,0,1,0,55.6,0,1,1,0,0.693147,-0.219832,0,0,B
'Queen\'s University Belfast',1,1,11,1,0,0,1,1,1,1,1,1,3,0,0,1,0,0,1,2,1,1,0,0,1,1,0,1,1,1,1,1,1,1,1,1,1,1,1,0,0,0,1,0,0,1,1,7.68,0,1,0,0,0,0,0,90,1,0,1,1,1,1,100,0,1,1,0,0,-0.111196,3650,1,B
'Polytechnic University of Catalonia',1,1,2,1,1,0,0,1,1,0,1,0,0,0,0,1,1,1,0,0,1,1,0,0,1,1,0,1,1,1,1,1,1,1,0,1,1,1,1,0,0,0,1,1,1,1,1,18.76,0,1,1,0,0,0,0,90,1,0,1,0,1,0,59,0,1,1,0,0,-0.0876742,3650,1,B
'University of Warsaw',1,1,6,1,0,0,0,1,0,0,0,0,0,0,0,1,1,1,0,0,0,0,0,0,0,1,0,1,1,1,1,1,1,1,1,0,0,0,1,0,1,0,0,1,1,1,0,11.24,0,1,1,0,0,0,0,75,1,1,1,0,1,0,27.3,0,1,1,0,0.693147,0.196436,3650,1,B
'Sciences Po',1,1,5,0,1,0,0,1,0,0,0,1,10,1,0,1,1,1,1,0,1,1,1,1,1,1,0,1,1,0,1,1,1,1,1,1,1,1,1,1,1,0,1,0,1,1,1,21,0,1,1,1,0,1,0,90,1,0,1,1,1,0,47.5,0,1,1,0,0,0.0849799,3650,1,B
'University of Mauritius',1,1,8,1,0,0,0,0,1,1,1,0,0,0,0,1,1,1,1,0,0,0,0,0,0,1,0,1,1,1,1,1,1,1,1,1,1,1,1,1,0,0,1,0,1,1,0,15.43,0,1,1,0,0,0,0,75,1,44,0,0,1,1,82.4,0,1,0,0,3.80666,0.354287,3650,1,B
'Kasetsart University',1,1,1,1,1,0,0,1,0,0,1,1,2,1,1,1,1,1,0,0,1,1,0,0,0,1,0,1,1,1,1,1,1,0,0,0,0,1,1,1,0,0,0,1,1,1,0,15.92,0,1,1,0,0,1,0,100,1,0,0,1,1,1,100,0,1,0,0,0,-1.54924,6,0,B
'Autonomous University of Madrid',1,1,9,1,1,1,0,1,0,0,1,1,3,0,1,1,0,1,0,0,1,1,1,0,1,1,0,0,1,1,1,1,1,0,1,0,1,0,1,0,0,0,0,0,0,1,1,15.43,0,1,1,0,0,0,0,100,1,0,0,1,1,0,96,0,1,1,0,0,0.508312,85,0,B
'Carol Davila University of Medicine and Pharmacy',1,1,5,1,0,0,0,0,0,0,0,0,0,0,1,1,0,1,1,1,1,1,1,0,0,1,0,1,1,1,1,1,1,0,1,0,0,1,1,0,0,0,0,0,1,1,0,14.59,0,1,1,0,0,0,0,75,1,0,1,0,1,1,13.3,0,1,0,0,0,-1.45466,7,0,B
'Ton Duc Thang University',1,1,6,0,1,0,0,1,1,1,0,1,3,0,1,1,0,1,1,8,1,1,1,1,1,1,0,1,1,1,1,1,1,1,0,0,0,0,1,0,0,0,0,0,1,1,1,15.43,0,1,1,0,0,0,0,75,1,0,0,1,1,1,13.6,0,1,0,0,0,0.00149696,4,0,B
'Guru Gobind Singh Indraprastha University',1,1,8,0,0,0,0,1,1,1,0,0,0,1,0,1,1,1,1,0,1,0,1,0,0,1,0,1,1,1,1,1,1,0,1,1,1,1,1,1,1,0,0,1,0,0,0,15.43,0,1,0,0,0,0,0,75,1,0,1,0,1,1,61.5,0,1,0,0,0,-0.594696,3650,1,B
'Abo Akademi University',1,1,2,1,1,0,0,0,0,0,0,1,10,0,1,1,1,0,1,4,1,1,1,0,1,1,0,0,1,1,1,1,1,0,1,0,1,1,1,0,0,0,1,0,0,1,1,16.31,0,1,1,0,0,1,0,90,1,0,1,1,1,1,28.2,0,1,1,0,0,0.373545,0,0,B
'Far Western University',1,1,8,0,0,0,0,0,1,1,1,1,4,1,1,1,0,1,0,7,1,1,0,0,0,1,1,1,1,1,1,1,1,1,1,0,0,0,1,0,1,0,1,0,1,0,0,3.54,0,1,1,0,0,0,0,75,1,0,1,0,1,0,8.3,0,0,0,0,0,0.209916,1,0,B
'National Chengchi University',1,1,4,1,1,0,0,0,0,0,0,1,10,1,1,0,1,1,0,0,0,1,0,0,0,1,0,1,1,1,1,1,1,0,1,0,1,1,1,0,0,0,0,1,0,1,0,18.58,0,1,0,0,0,0,1,50,1,0,1,1,1,1,90.2,0,1,0,0,0,0.364701,0,0,B
'University of Modena and Reggio Emilia',1,1,8,1,1,0,0,0,1,1,1,1,3,1,1,1,0,1,0,0,1,1,0,1,0,1,0,1,1,1,1,1,1,0,1,0,0,1,0,1,0,0,1,1,1,1,1,1.3,0,1,1,0,0,0,0,75,1,0,1,0,1,0,87.9,0,1,1,0,0,-1.07221,0,0,B
'University of Alabama',1,1,7,1,0,0,0,1,0,0,1,0,0,1,0,1,1,1,0,0,1,1,0,1,1,1,0,1,1,1,1,1,1,0,1,1,1,0,1,0,0,0,1,0,1,1,1,21,0,1,1,0,0,0,1,90,1,0,1,1,1,1,38.9,0,1,1,0,0,1.12362,3650,1,B
'University of Georgia',1,1,5,1,0,0,0,1,0,0,0,1,3,1,1,1,1,0,1,7,1,1,0,1,1,1,0,1,1,1,1,1,1,1,0,1,1,0,0,0,0,0,1,0,1,1,1,15.43,0,1,0,0,0,1,0,75,1,0,0,1,1,1,22.2,0,1,1,0,0,0.0503033,1,0,B
'University of Evora',1,1,8,1,0,0,0,0,1,1,1,1,10,0,0,1,1,1,1,0,0,0,0,0,1,1,0,1,1,1,1,1,1,1,1,0,1,0,1,1,0,0,0,0,1,1,0,15.13,0,1,1,0,0,0,1,75,1,0,1,1,1,0,100,0,1,1,0,0,0.13338,3650,1,B
'University of National and World Economy',1,1,20,1,1,0,0,0,1,1,1,1,7,0,1,1,0,1,1,15,1,1,1,0,1,1,0,1,1,1,0,1,1,1,1,0,0,0,1,1,0,0,0,0,0,1,0,12.63,0,1,1,0,0,0,0,100,1,4,1,1,1,1,67.6,0,1,1,0,1.60944,-0.0172737,34,0,B
'Kookmin University',1,1,7,1,0,0,0,0,0,0,1,1,5,0,0,1,1,1,0,0,0,0,1,1,1,1,0,1,1,1,1,1,1,1,0,0,1,0,1,1,0,1,0,0,1,1,0,7.46,0,1,1,0,0,0,1,75,1,0,0,1,1,1,67.2,0,1,0,0,0,1.22275,3650,1,B
'Claude Bernard University Lyon 1',1,1,4,1,1,0,0,0,0,0,1,0,1,1,0,1,1,1,1,0,1,1,0,0,0,1,0,1,1,1,1,1,1,0,1,1,1,0,1,1,0,0,0,0,1,1,1,14.79,0,0,1,0,0,0,0,75,1,0,1,0,1,0,52.6,0,1,1,1,0,-0.702876,3650,1,B
'Kharkiv Polytechnic Institute',1,1,3,1,0,0,1,1,1,1,1,0,0,0,1,1,0,1,1,6,1,1,0,0,0,1,0,1,1,1,1,1,1,0,1,0,1,0,1,0,0,0,0,0,1,1,0,13.99,0,1,1,0,0,0,0,90,1,0,1,0,1,1,32,0,1,0,0,0,-1.1349,4,0,B
'University of Agder',0,1,1,1,1,1,0,0,0,0,0,1,2,0,1,1,0,0,0,16,0,0,1,0,0,1,0,0,1,1,1,1,1,0,1,1,0,0,1,1,0,0,1,0,0,1,1,12.63,0,1,0,0,0,0,0,75,1,0,1,1,1,0,87.5,0,1,1,0,0,-0.483178,0,0,B
'University of Leeds',0,1,4,1,0,0,1,1,1,1,1,0,0,0,0,1,1,1,1,0,1,1,0,0,0,1,0,1,1,1,1,1,1,0,1,1,1,1,1,1,0,0,0,0,1,1,0,15.43,0,1,0,0,0,0,1,75,1,0,1,1,1,1,91.7,0,1,1,0,0,-1.27249,3650,1,B
'Oles Honchar Dnipro National University',1,1,6,1,1,0,0,1,0,0,1,1,4,1,1,1,0,1,0,0,1,0,1,1,0,1,0,1,1,1,1,1,1,1,1,0,0,1,1,0,0,0,0,1,1,1,1,10.52,0,1,1,0,0,0,0,20,1,0,1,0,0,1,70.2,0,0,0,0,0,-0.0844497,583,0,B
'University of Piraeus',1,1,4,1,1,0,0,0,1,0,1,0,0,1,1,1,0,0,0,0,0,0,0,0,1,1,0,0,1,1,1,1,1,1,1,1,1,1,1,0,0,0,1,0,1,1,1,16.67,0,1,1,0,0,0,0,90,1,1,1,0,1,0,89.3,0,1,1,0,0.693147,1.32392,308,0,B
'Norwegian School of Economics',1,1,5,1,1,0,0,0,0,0,0,0,0,1,1,1,1,0,0,14,1,1,1,0,0,1,0,1,1,0,1,1,1,0,1,1,1,1,1,1,0,0,1,0,0,1,1,14.16,0,1,0,0,0,1,0,90,1,0,1,1,1,0,100,0,1,1,0,0,-0.0195341,0,0,B
'Chungbuk National University',1,1,5,1,0,0,0,0,0,0,0,1,7,1,0,1,0,1,0,0,0,0,1,1,1,1,0,1,1,1,1,1,1,0,1,0,0,0,1,1,0,1,1,1,1,1,0,9.74,0,1,1,1,0,0,0,75,1,1,0,0,0,1,100,0,1,0,0,0.693147,1.99611,3650,1,B
'Fordham University',1,1,1,1,0,0,0,0,0,0,0,1,3,1,0,1,1,1,1,0,0,0,0,0,1,1,0,1,1,1,1,1,1,1,1,1,1,1,0,0,0,0,0,0,0,1,1,12.63,0,1,1,0,0,1,0,90,1,0,1,1,1,1,72.2,0,1,1,0,0,0.698518,3650,1,B
'Pontifical Catholic University of Peru',0,1,7,1,1,0,1,1,1,1,0,1,6,0,0,1,0,1,1,0,0,0,0,0,0,0,0,1,1,1,1,1,1,1,1,0,0,0,1,1,0,0,1,1,1,1,1,12.63,0,0,0,0,0,0,0,75,1,0,1,0,1,1,0,0,1,0,0,0,-0.973141,3650,1,B
'Toulouse III - Paul Sabatier University',1,1,7,1,1,0,0,1,1,0,0,1,10,1,0,1,1,1,1,0,1,1,0,1,0,0,1,1,1,0,1,1,1,1,1,1,1,1,1,1,0,0,1,1,1,0,1,1,0,0,1,0,0,0,0,75,1,0,1,1,1,0,72.7,0,1,1,0,0,-0.568535,3650,1,B
'Bandung Institute of Technology',1,1,2,0,0,0,0,1,1,1,1,0,0,0,1,1,0,1,1,0,1,1,0,0,0,1,0,1,1,1,1,1,1,1,1,0,1,0,1,0,0,0,1,0,0,1,1,8.86,0,1,1,0,0,0,0,75,1,0,0,0,1,1,100,0,1,1,0,0,-1.34657,4,0,B
'Budapest University of Technology and Economics',1,1,2,0,1,1,0,1,0,0,1,0,0,0,0,1,0,1,1,2,1,1,0,0,0,1,0,1,1,1,1,1,1,1,1,0,1,1,1,0,1,0,1,0,0,1,1,14,0,1,1,0,0,1,1,75,1,2,1,0,1,1,100,0,1,0,0,1.09861,0.253401,3650,1,B
'Kenyon College',0,1,2,1,0,0,0,1,0,0,1,1,4,0,0,1,1,1,1,1,1,1,0,1,1,1,0,1,1,1,1,1,1,1,1,1,1,1,0,0,0,0,1,0,1,1,1,21,0,1,0,0,0,0,1,100,1,0,1,1,1,1,0,0,1,1,0,0,-0.108177,3650,1,B
'University of California, Santa Barbara',0,1,5,1,0,0,0,1,0,0,0,1,2,0,0,1,0,1,1,0,0,0,0,0,1,1,0,1,1,1,1,1,1,0,1,1,1,1,1,0,0,0,1,0,1,1,1,9.24,0,1,0,0,0,0,1,75,1,0,1,1,1,1,50,0,1,1,0,0,-1.15311,3650,1,B
'University of Amsterdam',0,1,3,1,0,0,0,0,0,0,1,0,0,0,1,1,0,1,1,4,1,1,0,0,0,1,0,0,1,1,1,1,1,0,1,1,1,0,1,1,0,0,0,0,1,1,1,1.16,0,1,0,0,1,0,0,100,1,0,0,1,1,0,0,0,1,0,0,0,-0.672322,0,0,B
'University of Gujrat',1,1,7,0,0,0,0,0,0,0,0,0,0,1,0,1,1,1,1,0,0,0,0,0,0,1,0,1,1,1,1,1,1,1,1,1,1,1,1,1,0,0,0,0,1,1,0,12.63,0,1,1,0,0,0,0,75,1,0,1,0,1,1,100,0,0,0,0,0,-0.238828,3650,1,B
'University of Pittsburgh',1,1,6,1,0,0,0,1,0,0,1,1,3,0,0,1,0,1,1,0,1,1,0,0,1,1,0,1,1,1,1,1,1,1,0,1,1,1,1,0,0,0,1,0,0,1,1,15.43,0,1,1,0,0,0,0,75,1,0,1,0,1,0,100,0,1,1,0,0,-1.33624,3650,1,B
'Santa Clara University',0,1,7,1,0,0,0,1,1,1,0,1,4,0,0,1,1,1,1,0,0,0,0,0,1,1,0,1,1,1,1,1,1,0,0,1,1,1,1,1,0,0,1,0,1,1,1,15.43,0,1,0,1,0,0,0,75,1,0,1,1,1,1,80,0,1,1,0,0,-0.653224,3650,1,B
'University of Carthage',1,1,11,1,0,0,0,1,1,1,1,0,0,0,1,1,0,1,1,0,1,1,0,1,1,1,0,1,1,1,1,1,1,1,0,1,1,0,1,0,0,0,0,0,1,1,0,13.58,0,1,0,0,0,0,0,90,1,0,1,0,1,1,31.4,0,1,0,0,0,-0.0810364,60,0,B
'Catholic University of Portugal',1,1,3,1,1,0,0,1,0,0,1,1,5,0,1,0,1,1,0,11,1,1,1,0,0,1,0,0,1,1,1,1,1,0,0,0,1,1,1,0,0,0,1,0,1,1,1,13.4,0,1,1,0,0,0,0,100,1,0,0,1,1,0,89.1,0,1,0,0,0,2.62552,0,0,B
'Rotterdam University of Applied Sciences',0,1,1,1,1,1,0,0,0,0,0,0,0,0,1,1,1,1,1,0,1,0,0,0,0,1,0,0,1,1,1,1,1,0,1,1,0,1,1,1,0,0,0,0,1,1,0,11.9,0,1,0,0,0,0,0,75,1,0,1,1,1,0,0,0,1,0,0,0,0.689027,41,0,B
'University of Illinois Chicago',0,1,0,1,0,0,0,1,0,0,1,0,0,0,1,1,1,1,1,1,0,0,1,0,0,1,0,1,1,1,1,1,1,1,1,0,1,1,1,0,0,0,1,0,1,1,1,19.77,0,1,0,0,0,0,0,75,1,0,1,1,1,0,0,0,1,0,0,0,-0.36506,3650,1,B
'University of Macau',1,1,10,0,1,0,0,1,0,0,1,1,10,1,0,1,0,0,1,20,1,1,0,1,1,1,0,1,1,1,1,1,1,1,1,1,1,0,1,0,0,0,1,1,1,1,1,8.34,0,1,1,1,0,0,0,90,1,0,1,1,1,0,5.5,0,1,1,0,0,-0.406255,3650,1,B
'Reed College',1,1,4,1,0,0,0,0,0,0,1,0,0,0,0,1,0,1,1,12,1,1,0,0,1,1,0,1,1,0,1,1,1,1,0,1,1,1,1,1,0,1,1,0,1,1,1,21,0,1,0,0,0,0,0,75,1,0,1,1,1,1,75,0,1,0,0,0,0.156993,3650,1,B
'University of Mississippi',1,1,6,1,0,0,0,0,0,0,0,1,2,1,1,1,0,1,1,1,1,1,0,0,0,1,0,1,1,1,1,1,1,0,1,1,1,1,0,0,0,0,1,0,1,1,1,15.91,0,1,1,0,0,0,1,75,1,0,1,1,1,1,87.1,0,1,1,0,0,0.147463,578,0,B
'Mid Sweden University',1,1,3,1,1,1,0,0,0,0,0,0,0,0,1,1,0,1,0,2,1,1,0,0,0,1,0,0,1,0,1,1,1,1,1,1,0,1,1,1,0,0,1,0,0,0,0,13.2,0,1,1,0,0,1,0,90,1,0,1,1,1,1,29.4,0,1,0,0,0,0.0767352,32,0,B
'AGH University of Krakow',1,1,1,1,0,0,0,1,0,0,0,1,7,0,1,1,0,1,1,20,1,1,0,1,0,1,0,1,1,1,0,1,1,0,1,1,1,0,1,0,0,0,0,1,1,1,0,16.1,0,1,0,0,0,0,0,100,1,0,1,1,1,0,100,0,1,1,0,0,-1.3178,0,0,B
'Oberlin College',1,1,2,1,1,1,0,0,1,1,1,0,0,1,0,1,0,1,1,0,1,1,0,1,1,1,0,1,1,1,1,1,1,1,1,0,1,1,1,0,0,0,0,0,1,0,0,19.38,0,1,1,1,0,0,0,75,1,0,1,0,1,1,7.6,0,1,1,0,0,0.609645,3650,1,B
'Linkoping University',1,1,3,1,1,0,0,0,0,0,0,0,0,0,1,1,1,1,0,2,1,1,0,0,0,0,0,1,1,0,1,1,1,0,1,1,1,1,1,0,0,0,0,0,0,1,0,16.88,0,0,1,0,0,0,1,100,1,0,1,1,1,1,76.9,0,1,1,0,0,-0.909964,19,0,B
'Norwegian University of Science and Technology',1,1,1,1,1,1,0,0,0,0,0,0,0,0,0,1,1,1,0,0,1,1,0,0,0,1,0,0,1,1,1,1,1,0,1,1,0,1,1,1,0,0,0,0,0,1,1,14.61,0,1,1,0,0,0,0,100,1,0,1,1,1,0,78.6,0,1,1,0,0,1.40995,3650,1,B
'Oregon State University',1,1,5,0,0,0,0,1,0,0,1,1,4,0,0,1,1,1,1,0,0,0,0,0,0,1,0,1,1,1,1,1,1,0,1,1,1,1,1,0,0,0,1,0,1,1,1,9.74,0,1,1,0,0,0,0,75,1,0,1,1,1,1,71.4,0,1,1,0,0,-0.516703,3650,1,B
'University of Perugia',1,1,1,0,1,0,0,0,1,1,1,0,0,0,1,0,1,1,0,1,0,0,1,0,0,1,0,1,1,1,1,0,1,1,1,0,0,0,1,0,0,1,1,0,1,1,1,15.43,0,1,1,0,0,0,0,100,1,0,1,0,1,0,100,0,1,0,0,0,-0.267885,3650,1,B
'Amsterdam University of Applied Sciences',1,1,3,1,1,0,0,0,0,0,0,0,0,0,0,1,1,1,1,0,0,0,0,1,0,0,0,1,1,1,0,1,1,0,1,0,0,1,1,0,0,1,0,0,1,1,1,10.34,0,0,0,0,0,1,0,100,1,1,1,0,1,0,100,0,1,0,0,0.693147,-0.56417,3650,1,B
'Shinshu University',1,1,7,1,0,0,0,1,0,0,0,0,0,1,1,0,0,1,0,6,0,0,1,0,0,1,0,1,1,1,1,1,1,1,0,0,1,1,1,0,0,0,0,1,1,1,1,21,0,1,1,0,0,0,0,75,1,0,1,1,0,0,46.7,0,0,0,0,0,-1.25607,3650,1,B
'Molde University College',1,1,1,1,1,1,0,0,0,0,1,1,8,1,1,1,0,1,0,20,0,0,1,0,0,0,0,0,1,0,1,1,1,1,1,0,0,1,1,1,0,0,1,0,0,1,0,19.09,0,0,0,0,0,0,0,75,1,0,1,0,1,0,66.7,0,1,1,0,0,0.170822,0,0,B
'Royal Holloway, University of London',1,1,4,1,0,0,0,0,0,0,1,0,0,0,0,1,1,0,1,0,1,1,0,0,0,1,0,0,1,1,1,1,1,1,1,1,1,1,1,1,1,0,1,0,0,1,1,1.44,0,1,1,0,0,1,0,75,1,0,1,1,1,1,0,0,1,1,0,0,-0.320951,3650,1,B
'University of Maribor',1,1,4,1,1,0,0,1,0,0,1,0,0,0,1,1,0,1,1,1,1,1,1,1,0,1,1,1,1,1,1,1,1,0,1,0,0,0,0,0,0,0,1,0,1,1,1,21,0,1,1,0,0,0,0,75,1,0,1,1,1,1,15,0,1,1,0,0,-0.201426,13,0,B
'Karolinska Institute',1,1,1,1,1,0,0,0,0,0,1,0,0,0,1,1,1,1,0,9,1,1,0,0,0,1,0,0,1,0,1,1,1,0,1,1,0,1,1,0,0,0,1,0,1,1,1,21,0,1,1,0,0,0,0,100,1,0,0,1,1,0,95.7,0,1,1,0,0,0.191919,0,0,B
'Satbayev University',1,1,7,1,1,0,0,0,1,1,1,1,4,0,0,1,0,1,1,0,1,1,0,1,1,1,0,1,1,1,0,1,1,1,1,1,1,1,1,0,0,0,0,0,1,1,1,19.77,0,1,0,0,0,0,0,75,1,0,1,1,1,0,98.1,0,1,0,0,0,1.60324,3650,1,B
'Indian Institute of Technology Indore',1,1,10,0,0,0,0,0,0,0,1,0,0,1,1,1,0,1,1,20,1,1,0,0,1,1,0,1,1,1,1,1,1,0,1,0,1,0,1,1,0,0,0,0,1,1,0,9.74,0,1,1,0,0,0,0,75,1,0,1,1,1,0,90.8,0,1,0,0,0,-0.677145,0,0,B
'University of New Hampshire',1,1,4,1,0,0,0,0,0,0,1,0,0,0,1,1,0,1,1,0,0,0,1,1,0,1,0,1,1,1,1,1,1,0,1,0,1,1,1,0,0,0,1,0,1,1,1,16.54,0,1,1,0,0,0,0,100,1,0,1,1,1,0,44.1,0,1,1,0,0,-0.287166,185,0,B
'Hasanuddin University',1,1,6,0,0,0,0,1,1,1,1,0,0,0,1,1,1,1,1,0,1,0,0,1,0,1,0,1,1,0,1,1,1,1,1,0,0,0,0,1,0,1,0,0,1,1,0,8.21,0,1,0,0,0,0,0,90,1,0,1,1,1,1,96.7,0,1,0,0,0,-1.3853,10,0,B
'University of Goettingen',1,1,7,1,1,1,0,1,0,0,1,1,6,1,1,1,1,0,1,2,1,1,1,0,0,1,0,1,0,0,0,1,1,1,1,1,1,0,1,1,0,0,1,0,0,1,1,5.03,0,1,1,0,0,0,1,75,1,0,1,1,1,0,87,0,1,1,0,0,-0.854918,0,0,B
'University of West Bohemia',1,1,4,1,1,0,0,0,0,0,1,1,6,1,0,1,0,1,0,20,1,1,0,0,0,1,0,0,1,1,1,1,1,0,1,0,0,1,1,0,0,0,0,0,1,1,1,6.82,0,1,1,0,0,0,0,100,1,0,1,1,1,1,95.8,0,1,0,0,0,-0.59033,3650,1,B
'University of Minnesota Twin Cities',0,1,4,1,0,0,0,1,0,0,0,1,3,0,1,1,1,1,1,0,1,1,0,1,1,1,0,1,1,0,1,1,1,1,1,1,1,1,1,0,0,0,0,0,1,1,1,12.63,0,1,0,0,0,0,0,100,1,0,1,1,1,1,90,0,1,1,0,0,0.0152927,375,0,B
'Maria Curie-Sklodowska University',1,1,9,1,1,0,0,0,1,0,0,1,8,0,0,1,1,1,1,1,1,1,1,0,0,1,1,1,1,1,1,1,1,0,1,0,0,0,1,0,0,0,0,1,1,1,0,18.26,0,1,0,0,0,0,0,75,1,0,1,0,0,0,88.2,0,1,1,0,0,-0.0552506,3650,1,B
'North-West University',1,1,6,1,1,0,0,1,1,1,1,0,0,1,0,1,1,0,1,6,1,1,0,1,1,1,0,1,1,1,1,1,1,0,1,1,1,0,1,1,0,0,0,0,1,1,1,12.63,0,1,1,0,0,0,0,75,1,0,1,0,1,0,64,0,1,0,0,0,-1.34451,3650,1,B
'Ladoke Akintola University of Technology',1,1,8,1,0,0,0,1,0,0,1,0,1,1,1,1,0,1,1,6,1,1,1,0,1,1,0,1,1,1,1,1,1,0,1,0,1,0,1,0,0,0,1,0,1,1,1,3.77,0,1,1,0,0,0,0,75,1,0,1,0,1,1,87,0,1,0,0,0,0.204785,495,0,B
'University of Cologne',1,1,4,1,1,0,0,1,1,1,0,1,4,0,1,1,1,1,1,4,1,1,1,0,0,1,0,0,0,0,0,1,1,0,1,1,1,0,1,0,0,0,1,1,1,1,1,21,0,1,1,0,0,0,0,100,1,0,1,1,1,1,28.6,0,1,1,0,0,0.44799,4,0,B
'University of Pisa',1,1,5,1,0,1,0,1,0,0,1,0,0,1,0,1,0,1,1,0,0,0,0,1,0,1,0,1,1,1,1,1,1,1,1,0,1,0,1,0,0,0,0,0,0,1,0,15.43,0,1,0,0,0,1,0,90,1,1,1,0,1,0,40,0,1,0,0,0.693147,0.284033,3650,1,B
'University of Danang',1,1,1,1,0,0,0,0,1,1,1,0,0,1,1,1,0,1,1,4,1,1,0,1,1,1,0,1,1,1,1,1,1,0,0,0,0,0,1,0,1,0,0,0,1,0,0,15.43,0,1,1,0,0,0,0,90,1,1,1,0,1,1,47.8,0,1,0,0,0.693147,-0.379767,4,0,B
'University of Ioannina',1,1,4,0,1,0,0,0,0,0,0,0,0,0,1,1,0,1,1,0,1,1,0,0,0,1,0,1,1,1,1,1,1,0,1,1,0,0,1,0,0,0,0,0,1,1,1,12.08,0,1,1,0,0,0,0,90,1,0,1,0,1,1,93.1,0,1,0,0,0,-0.582806,48,0,B
'Tokyo University of Science',1,1,8,1,1,0,0,0,0,0,1,1,2,0,0,1,1,1,1,0,1,1,0,1,1,1,0,1,1,1,1,1,1,0,1,0,1,1,1,0,0,0,0,1,1,1,0,15.43,0,1,0,0,0,0,1,75,1,0,1,1,0,0,44.6,0,1,0,0,0,-0.158433,3650,1,B
'Thapar Institute of Engineering and Technology',1,1,2,1,0,0,1,1,1,1,0,1,10,1,0,1,1,1,1,0,1,1,0,0,1,1,0,1,1,0,1,1,1,1,1,1,0,1,1,0,0,0,1,0,1,1,1,12.63,0,1,0,1,0,0,0,75,1,0,1,1,1,1,82.5,0,1,1,0,0,-0.5318,3650,1,B
'University of Campinas',1,1,2,1,0,0,0,0,0,0,1,1,10,0,1,1,1,1,1,20,1,0,0,1,0,1,0,1,0,1,1,1,1,0,1,0,0,0,0,0,0,0,1,0,1,1,1,5.55,0,1,1,0,0,0,0,90,1,2,1,0,1,1,81.6,0,1,1,0,1.09861,-0.891378,1,0,B
'University of Tennessee, Knoxville',1,1,4,1,0,0,0,0,0,0,0,1,2,0,0,1,1,1,0,0,0,0,0,1,1,1,0,1,1,0,1,1,1,1,1,1,1,1,1,0,0,0,1,0,0,1,1,8.72,0,1,1,0,0,0,1,90,1,0,1,1,1,1,89.5,0,1,1,0,0,-1.40233,3650,1,B
'University of Debrecen',1,1,3,1,1,0,0,1,0,0,0,1,10,1,0,1,1,1,1,2,1,1,0,0,0,1,0,1,1,1,1,1,1,0,1,0,1,1,1,1,0,0,0,0,1,1,0,14.78,0,1,1,0,0,1,0,75,1,0,1,0,1,0,77.8,0,1,0,0,0,-0.114007,3650,1,B
'Wroclaw University of Science and Technology',1,1,8,1,1,0,0,1,0,0,0,0,1,0,1,1,1,1,1,0,0,0,1,0,0,1,0,1,0,1,1,1,0,0,1,0,0,1,1,0,0,0,0,1,1,1,1,15.43,0,1,0,0,0,0,0,90,1,0,1,1,1,0,87.1,0,1,1,0,0,0.0346758,6,0,B
'Bangladesh University of Engineering and Technology',1,1,9,0,0,0,1,1,0,0,1,1,4,1,1,1,0,1,1,2,0,0,1,1,0,1,0,1,1,1,1,1,1,1,1,0,1,1,0,1,0,0,0,0,1,1,1,9.74,0,1,1,0,0,1,0,75,1,6,1,1,1,0,66.7,0,1,0,0,1.94591,-0.355496,260,0,B
'University of Benin',1,1,10,1,0,0,0,0,0,0,1,0,0,0,0,1,1,1,1,1,1,1,0,0,0,1,0,1,1,1,1,1,1,0,1,0,1,0,1,0,0,0,0,1,1,1,1,15.43,0,1,1,0,0,0,0,75,1,12,1,0,1,1,87.4,0,1,0,0,2.56495,-0.6193,3650,1,B
'University of Uyo',1,1,20,1,1,0,0,0,0,0,1,0,0,0,0,1,1,1,1,0,0,0,1,0,0,1,0,1,1,1,1,1,1,0,1,1,1,0,1,0,0,0,1,0,1,0,1,12.63,0,1,1,0,0,0,0,75,1,0,1,0,1,1,59.5,0,1,0,0,0,-0.060841,3650,1,B
'Riphah International University',0,1,5,1,0,0,1,1,1,1,1,0,1,1,0,1,0,1,1,0,1,1,0,1,0,1,0,1,1,1,1,1,1,0,0,1,1,0,1,0,0,0,0,1,1,1,1,12.63,0,1,0,0,0,1,0,75,1,0,1,1,1,1,83.3,0,1,0,0,0,-0.944208,3650,1,B
'Panteion University',1,1,5,1,1,0,0,0,0,0,0,1,10,1,0,1,1,1,1,8,1,1,0,0,1,1,0,1,1,1,1,1,1,0,1,0,1,0,1,0,0,0,0,0,1,1,0,21,0,1,1,0,0,0,0,90,1,0,1,0,1,0,71.9,0,1,0,0,0,2.6214,3650,1,B
'Trinity College Dublin',1,1,7,1,0,0,0,0,0,0,0,0,0,0,1,1,0,0,1,20,1,1,0,0,1,1,0,0,1,1,1,1,1,0,1,0,1,1,1,0,0,0,1,0,0,1,1,21,0,1,1,0,0,0,0,90,1,0,1,0,1,0,62.5,0,1,1,0,0,1.29574,0,0,B
'Inland Norway University of Applied Sciences',1,1,1,1,1,0,0,0,0,0,0,1,2,0,1,1,0,0,0,20,1,0,1,0,0,1,0,0,1,1,1,1,1,0,1,1,0,0,1,1,0,0,0,0,0,1,1,15.13,0,0,1,0,0,0,0,75,1,0,1,1,1,0,89.5,0,1,1,0,0,0.567538,0,0,B
'King Mongkut\'s Institute of Technology Ladkrabang',1,1,3,0,1,0,0,0,0,0,1,1,10,0,1,1,0,1,1,15,1,1,1,1,0,1,0,1,1,1,1,1,1,0,0,0,1,0,1,0,0,0,1,0,0,1,1,15.43,0,1,1,0,0,0,0,75,1,0,1,1,1,1,80.2,0,1,0,0,0,-0.394014,0,0,B
'Umea University',1,1,0,1,1,0,0,0,0,0,1,1,3,0,0,1,0,1,0,3,1,0,0,0,0,1,0,0,1,1,1,1,1,0,1,1,0,1,1,1,0,0,1,0,0,1,1,21,0,1,1,0,0,0,0,100,1,0,1,1,0,1,44.4,0,1,1,0,0,0.131053,3650,1,B
'Palacky University Olomouc',1,1,1,1,0,0,1,1,0,0,1,1,4,1,0,1,1,1,1,0,1,1,0,0,0,1,1,1,1,1,1,1,1,0,1,0,1,1,1,0,0,0,1,0,1,1,1,7.59,0,1,0,0,0,0,0,75,1,0,0,1,1,0,58.7,0,1,1,0,0,-1.08528,3650,1,B
'University of Groningen',1,1,6,1,1,0,0,0,0,0,1,0,0,0,0,1,0,1,1,0,1,1,0,0,0,0,0,0,1,1,1,1,1,0,1,1,1,1,1,1,0,0,0,0,1,1,1,10.37,0,0,1,0,0,0,0,50,1,0,1,1,1,0,7.1,0,1,1,0,0,0.695574,3650,1,B
'Universiti Sains Malaysia',1,1,2,1,1,0,0,1,0,0,0,0,0,1,1,1,1,1,0,0,0,0,0,0,1,1,0,1,1,1,1,1,1,0,0,0,0,1,1,0,0,0,0,0,1,1,1,5.15,0,1,1,0,0,0,1,90,1,0,0,1,1,0,14.3,0,1,0,0,0,-0.771265,0,0,B
'Instituto Tecnologico y de Estudios Superiores de Monterrey (Tecnologico de Monterrey)',1,1,4,1,1,0,1,1,1,0,0,0,0,1,0,1,0,1,0,0,1,1,0,1,1,1,0,1,1,1,1,1,1,1,0,0,1,0,1,0,0,0,0,0,1,1,1,15.43,0,1,0,1,0,0,0,100,1,0,1,1,1,1,87.1,0,1,0,0,0,2.12505,3650,1,B
'Kyungpook National University',1,1,7,1,0,0,1,1,0,0,1,1,3,1,0,1,1,1,1,0,1,1,1,1,1,1,0,1,1,1,1,1,1,1,1,1,1,0,0,0,0,0,0,1,1,1,0,7.46,0,0,0,0,0,0,0,75,1,0,0,0,1,0,45.2,0,0,0,0,0,1.21853,3650,1,B
'University of Patras',1,1,9,1,1,0,1,1,0,0,1,0,0,1,0,1,1,0,0,0,1,1,0,0,0,1,0,0,1,1,1,1,1,1,1,0,1,0,1,1,0,0,1,0,0,1,1,19.26,0,1,1,0,0,0,0,75,1,0,1,0,1,0,91.3,0,1,1,0,0,0.181746,3650,1,B
'University of Miami',1,1,2,1,0,0,0,1,1,1,0,1,2,1,0,1,1,1,1,5,1,1,0,0,0,1,0,1,1,1,1,1,1,0,1,1,1,1,0,0,0,0,0,0,1,1,0,20.82,0,1,0,1,0,0,0,75,1,0,1,1,1,1,91.5,0,1,1,0,0,0.835453,3650,1,B
'Universiti Kebangsaan Malaysia',1,1,1,1,1,0,0,0,1,0,1,0,0,0,0,1,0,1,1,0,0,0,0,1,0,1,0,1,1,1,1,1,1,1,1,1,1,1,1,0,0,0,0,0,1,1,0,12.63,0,1,0,0,0,0,1,90,1,0,0,0,0,0,7.1,0,1,0,0,0,-0.307929,3650,1,B
'Queen\'s University',1,1,3,1,0,0,1,1,0,0,1,0,0,0,0,0,1,1,0,0,1,1,0,1,1,1,0,1,1,1,1,1,1,0,1,1,1,0,1,1,0,0,1,0,1,1,1,15.28,0,1,0,1,0,0,0,90,1,0,1,1,1,1,29.4,0,1,1,0,0,-0.0211681,3650,1,B
'University of West Attica',1,1,5,1,1,1,0,0,1,1,1,1,4,0,0,0,1,0,0,1,1,1,0,0,0,1,0,0,1,1,1,1,1,0,1,0,1,1,1,1,0,0,1,1,1,1,1,19.43,0,1,1,1,0,1,1,90,1,0,1,1,1,0,68.4,0,1,0,0,0,-0.541784,3650,1,B
'University of the Philippines Diliman',1,1,7,1,0,0,0,1,1,0,1,0,0,1,1,1,1,1,1,13,1,1,0,0,1,1,0,1,1,0,1,1,1,1,1,0,1,0,1,1,0,0,1,0,1,1,1,15.43,0,1,1,0,0,0,0,90,1,2,1,1,1,1,22.9,0,0,0,0,1.09861,-0.133551,380,0,B
'University of Connecticut',0,1,8,0,0,0,0,0,0,0,0,0,0,1,1,1,0,1,1,2,1,1,1,1,0,1,0,1,1,1,1,1,1,0,0,1,1,1,1,1,0,0,1,0,1,1,1,19.02,0,1,0,0,0,0,0,75,1,0,1,1,1,1,100,0,1,1,0,0,0.427341,3650,1,B
'Arizona State University',1,1,6,1,0,0,0,1,0,0,1,0,0,0,0,1,0,1,1,0,1,1,0,1,1,1,0,1,1,1,1,1,1,0,0,1,1,1,1,1,0,0,0,0,1,1,1,17.58,0,1,1,0,0,1,0,100,1,0,1,0,1,1,93.8,0,1,1,0,0,-0.555443,3650,1,B
'The Hague University of Applied Sciences',0,1,5,0,1,0,0,0,0,0,0,0,0,0,0,1,0,1,1,0,0,0,0,0,1,1,0,1,1,1,0,1,1,0,1,1,0,1,1,1,0,1,0,0,0,1,1,12.94,0,1,0,0,0,0,0,100,1,0,1,0,1,0,47.4,0,1,1,0,0,0.73025,3650,1,B
'Goethe University Frankfurt',1,1,5,0,1,0,0,0,0,0,0,0,0,0,1,1,1,1,1,1,1,1,1,1,0,1,0,0,1,1,1,1,1,0,0,0,1,1,1,1,0,0,0,0,1,1,0,11.71,0,1,1,0,0,1,0,100,1,0,1,1,1,0,59.3,0,1,1,0,0,-0.821212,156,0,B
'Cadi Ayyad University',1,1,8,1,0,0,0,1,1,0,1,1,4,1,1,1,1,0,1,2,1,1,1,1,0,1,0,1,1,0,1,1,1,1,0,0,1,1,1,0,0,0,1,0,1,1,1,15.43,0,1,1,0,0,0,0,75,1,0,1,1,1,0,100,0,1,0,0,0,-0.713686,0,0,B
'Kumamoto University',1,1,2,1,0,0,0,0,0,0,0,0,0,1,1,1,0,1,0,0,0,1,0,0,0,1,0,1,1,1,1,1,1,0,1,0,1,0,1,0,0,0,1,1,1,1,1,17.76,0,1,1,0,0,0,0,30,1,1,0,1,0,0,26.2,0,0,1,0,0.693147,-0.307327,6,0,B
'Karlstad University',1,1,4,0,1,0,0,0,0,0,0,0,0,0,1,1,1,1,0,0,0,0,0,0,0,1,0,0,1,0,1,1,1,0,1,1,1,1,1,1,0,0,1,0,1,1,1,21,0,1,1,1,0,0,0,75,1,0,1,1,1,0,100,0,1,1,0,0,-0.0333561,0,0,B
'Yuriy Fedkovych Chernivtsi National University',1,1,7,1,1,0,0,0,0,0,1,1,2,0,1,1,0,1,0,1,1,1,0,0,0,1,0,1,1,1,0,1,1,0,0,0,1,0,1,0,0,0,1,0,1,1,1,16.48,0,1,1,0,0,0,0,100,1,0,1,1,1,1,100,0,1,0,0,0,-1.27732,4,0,B
'University of Wisconsin-Madison',1,1,6,1,0,0,0,1,0,0,1,0,1,1,0,1,1,1,1,1,1,1,0,1,0,1,0,1,1,1,1,1,0,0,1,1,1,1,1,0,0,0,1,0,1,1,1,16.88,0,1,0,0,0,0,0,90,1,0,1,1,0,1,100,0,1,1,0,0,-1.46717,3650,1,B
'University of Toronto',1,1,3,1,0,0,0,1,0,0,1,0,0,0,1,1,0,0,1,3,1,0,0,1,0,1,0,0,1,0,1,1,1,0,1,1,1,1,1,0,0,0,0,1,0,1,1,7.49,0,1,1,0,0,0,0,90,1,0,1,1,1,1,100,0,1,1,0,0,-1.28259,0,0,B
'University of Jyvaskyla',1,1,3,1,1,0,0,0,0,0,0,1,6,1,1,1,1,1,0,8,1,1,1,0,0,1,0,0,1,1,0,1,0,0,1,1,0,1,1,1,0,0,1,0,0,1,1,21,0,1,1,0,0,1,0,100,1,0,1,1,1,0,54.5,0,1,0,1,0,0.00204771,0,0,B
'South China University of Technology',1,1,2,0,0,0,0,1,0,0,1,0,1,0,1,1,0,1,1,0,1,0,0,1,0,1,0,1,1,1,1,1,1,1,1,0,1,1,1,0,1,0,0,0,1,0,0,12.21,0,1,1,0,0,0,0,75,1,2,0,0,0,0,0,0,0,0,0,1.09861,-0.539496,18,0,B
'Vinnytsia National Technical University',1,1,2,1,1,0,0,0,1,1,1,1,4,0,0,1,0,1,1,0,1,1,1,1,0,1,0,1,1,1,1,1,1,0,1,1,1,1,1,0,0,0,0,1,1,1,0,10.73,0,1,0,0,0,0,0,75,1,0,1,1,1,1,13.7,0,1,0,0,0,-0.14446,3650,1,B
'University of Bologna',1,1,2,1,1,0,0,0,1,0,1,1,2,1,0,1,0,1,1,1,1,1,0,1,1,1,0,1,1,0,0,1,1,1,1,1,1,1,1,1,1,0,1,0,1,1,1,12.63,0,1,1,1,0,0,0,100,1,0,1,0,0,0,54.2,0,1,1,0,0,-0.744208,3650,1,B
'Hitotsubashi University',1,1,6,1,0,0,0,0,0,0,1,1,10,1,0,1,0,1,1,2,1,1,1,1,0,1,0,1,1,1,1,1,1,0,1,0,1,0,1,0,0,0,1,1,1,1,1,21,0,1,1,0,0,0,0,50,1,0,0,1,1,0,14.1,0,0,0,0,0,-0.306123,3650,1,B
'Silpakorn University',1,1,5,0,1,0,0,0,0,0,1,0,0,0,0,1,1,1,0,0,1,1,0,1,0,1,0,1,1,1,1,1,1,1,1,0,1,0,0,0,0,0,0,0,1,1,1,13.5,0,1,1,0,0,0,0,100,1,0,1,1,1,1,100,0,1,0,0,0,-0.66732,3650,1,B
'Paris-Est Creteil University',1,1,4,1,1,1,0,0,0,0,1,0,0,1,0,1,0,1,0,0,1,1,0,1,0,1,0,1,1,0,1,1,1,0,1,1,1,0,1,1,1,0,0,1,1,1,1,16.3,0,1,1,0,0,0,0,75,1,0,1,1,1,0,47.9,0,1,1,1,0,1.85129,3650,1,B
'University of Missouri',1,1,7,1,0,0,0,0,0,0,0,1,6,0,0,1,1,1,1,0,0,0,0,0,0,1,0,1,1,1,1,1,1,0,0,1,1,1,1,0,0,0,1,0,1,1,1,1.15,0,1,0,0,0,0,0,100,1,0,0,0,1,1,100,0,1,1,0,0,-1.16036,3650,1,B
'Haverford College',1,1,4,1,0,0,0,0,0,0,0,1,8,0,0,1,0,1,1,2,1,1,0,1,1,1,0,1,1,1,1,1,1,0,1,0,1,0,1,0,0,0,1,0,1,1,1,15.91,0,1,0,1,0,0,0,75,1,1,1,1,1,1,100,0,1,0,0,0.693147,-0.128479,3650,1,B
'University of Minho',1,1,5,1,1,1,0,0,1,1,1,1,3,1,0,1,0,0,1,6,0,1,0,0,1,1,0,1,0,1,1,1,1,1,1,0,1,0,1,1,0,0,0,0,1,1,0,21,0,1,0,0,0,1,0,50,1,0,1,0,1,0,39.5,0,1,0,0,0,0.294244,3650,1,B
'Konkuk University',1,1,7,0,0,0,0,1,1,1,1,1,3,1,0,1,0,1,1,0,0,0,1,0,0,1,0,1,1,1,1,1,1,0,1,0,1,1,1,1,1,0,1,1,1,1,0,12.63,0,1,1,0,0,0,0,50,1,0,0,1,0,1,63.6,0,1,0,0,0,4.06196,3650,1,B
'Niigata University',1,1,5,1,0,0,0,0,0,0,0,1,8,0,1,1,0,0,0,10,1,1,1,1,0,1,0,1,1,1,1,1,1,0,0,0,1,1,1,0,0,0,0,1,1,1,1,12.63,0,1,1,0,0,1,0,100,1,0,0,0,1,0,20,0,1,0,0,0,-0.244519,8,0,B
'University of Caxias do Sul',1,1,4,0,0,0,0,1,1,0,1,1,9,1,0,1,0,1,1,0,1,1,0,0,1,1,0,1,1,1,1,1,1,1,1,1,1,0,0,0,0,0,1,0,1,1,1,15.43,0,1,0,0,0,0,0,90,1,0,1,1,0,1,39.6,0,1,0,0,0,-0.381163,3650,1,B
'University of Lima',1,1,1,1,1,0,0,0,1,1,1,1,10,0,0,1,0,1,0,0,1,1,0,1,1,1,0,1,1,1,1,1,1,1,1,1,1,0,0,0,0,0,1,0,1,1,1,21,0,1,1,1,0,1,0,75,1,0,1,1,1,0,12.9,0,1,0,0,0,-0.429267,3650,1,C
'University of Rijeka',1,1,9,0,1,0,0,1,1,1,1,0,0,0,1,1,0,1,1,0,0,0,1,0,0,1,0,1,1,0,1,1,1,1,0,0,0,1,1,1,0,0,1,0,1,1,1,21,0,1,0,1,0,1,0,75,1,2,1,1,1,0,100,0,1,1,0,1.09861,-0.926389,0,0,C
'Addis Ababa University',1,1,1,1,0,1,1,1,0,0,1,0,0,1,1,1,0,1,1,1,1,1,0,1,0,1,0,1,1,0,1,1,1,0,1,0,1,0,1,0,0,0,0,0,1,1,1,20.01,0,0,0,1,0,0,0,90,1,0,1,1,1,0,95.9,0,1,0,0,0,-0.373169,1,0,C
'Gadjah Mada University',1,1,8,0,1,0,0,0,1,1,1,0,0,0,1,1,0,1,1,0,1,1,0,0,1,1,0,1,1,0,1,1,1,1,1,0,1,1,1,0,0,0,1,0,0,1,0,17.73,0,1,1,0,0,0,0,90,1,0,1,1,1,1,24.5,0,1,1,0,0,-1.76897,40,0,C
'Nanjing University',1,1,9,1,0,0,0,1,0,0,1,1,10,0,1,1,0,1,1,0,0,0,0,1,0,1,0,1,1,1,1,1,1,1,1,0,1,0,0,0,0,0,0,0,1,1,0,12.63,0,1,0,0,0,0,0,75,1,0,1,0,1,0,0,0,0,0,0,0,0.292261,2,0,C
'University of Michigan',1,1,9,1,0,0,0,0,0,0,1,0,1,1,0,1,1,0,1,2,1,1,0,0,0,1,0,0,1,1,1,1,1,0,1,1,1,0,1,0,0,0,0,0,1,1,0,18.26,0,0,0,0,0,0,0,75,1,0,1,1,1,1,100,0,1,0,0,0,-1.5548,3650,1,C
'Diponegoro University',1,1,2,1,1,0,0,1,0,0,1,1,6,1,1,1,1,1,1,0,1,1,0,0,0,1,0,1,0,0,1,1,1,1,0,0,1,0,1,1,0,0,1,0,1,1,1,12.63,0,1,1,0,0,0,0,90,1,0,1,0,1,1,63.2,0,1,0,0,0,-1.83298,16,0,C
'Matej Bel University',1,1,1,1,1,0,0,0,1,1,0,0,0,0,0,1,0,1,1,0,1,0,0,0,1,1,0,1,1,1,1,1,1,0,1,0,0,1,1,0,0,0,1,1,1,1,1,14.25,0,1,1,0,0,0,0,75,1,0,1,1,1,0,87.5,0,1,0,0,0,0.675804,3650,1,C
'Radboud University',1,1,1,1,1,0,0,0,0,0,1,0,0,1,1,1,0,1,1,7,1,1,1,0,0,1,0,0,1,0,1,1,1,0,0,1,1,0,1,0,0,0,0,0,1,1,1,12.21,0,1,1,0,0,0,0,100,1,2,1,1,1,0,100,0,1,0,0,1.09861,-1.26594,0,0,C
'National Yang Ming Chiao Tung University',1,1,10,1,0,0,0,1,0,0,0,1,3,0,1,1,1,1,0,0,1,1,0,1,0,1,0,1,1,1,1,1,0,0,1,0,1,1,1,0,0,0,1,1,1,1,1,15.43,0,1,1,0,0,0,0,75,1,0,1,0,1,0,69.2,0,1,0,0,0,-1.05641,1,0,C
'Chung-Ang University',0,1,6,1,0,0,0,0,0,0,1,1,10,1,1,1,1,1,0,0,0,0,1,1,0,1,0,1,1,1,1,1,1,0,1,0,1,0,1,0,0,0,1,0,1,1,0,21,0,1,0,1,0,0,0,75,1,0,0,0,0,1,14.3,0,1,0,0,0,-0.168466,681,0,C
'Burapha University',1,1,7,1,1,0,0,0,0,0,0,0,1,0,0,1,0,1,0,2,1,1,0,0,0,1,0,1,1,1,1,1,1,0,1,0,1,1,1,0,0,0,0,0,1,1,0,21,0,1,0,0,0,0,0,90,1,0,1,0,1,1,12.5,0,1,0,0,0,-1.6564,3650,1,C
'Erasmus University Rotterdam',1,1,3,1,1,0,0,1,0,0,1,0,0,0,1,1,1,1,1,0,0,0,0,0,0,1,0,1,1,0,0,1,1,0,1,1,1,1,1,1,0,0,0,0,0,1,1,14.5,0,1,0,0,0,1,0,75,1,1,1,1,1,0,100,0,1,1,0,0.693147,-0.171576,0,0,C
'Medical University of Vienna',0,1,20,1,1,0,0,0,0,1,0,1,4,0,0,1,0,1,1,7,1,0,0,0,1,1,0,1,1,1,1,1,1,0,1,1,1,0,1,0,0,0,0,0,1,1,1,18.62,0,1,0,0,0,0,0,75,1,0,1,1,1,0,0,0,1,0,0,0,1.20117,3650,1,C
'Sejong University',0,1,6,1,1,0,1,1,1,1,0,1,10,1,0,1,1,1,0,5,1,1,0,1,0,1,0,1,1,1,1,1,1,0,0,0,1,0,1,1,0,0,1,1,1,0,0,18.88,0,1,0,0,0,0,0,55,1,0,1,0,1,1,41.9,0,1,0,0,0,0.238884,3650,1,C
'Fontys University of Applied Sciences',1,1,5,1,1,1,0,0,1,1,0,0,0,1,1,1,1,1,1,1,1,1,1,1,1,1,0,0,1,0,1,1,1,0,0,1,0,1,1,1,0,0,1,0,0,0,1,8.32,0,1,1,0,0,0,0,100,1,0,1,1,1,0,25,0,1,0,0,0,0.283338,3650,1,C
'University College Copenhagen',1,1,4,1,1,0,0,0,0,0,0,0,0,0,1,1,0,1,0,0,1,0,1,0,0,1,0,0,1,0,1,1,1,0,1,1,0,0,1,0,0,0,1,0,0,1,1,21,0,1,0,0,0,1,0,90,1,0,1,1,1,1,100,0,1,0,0,0,-0.193643,5,0,C
'Yamagata University',1,1,5,1,1,0,0,0,0,0,0,0,0,1,1,1,0,1,1,2,0,0,1,1,0,1,0,1,1,1,1,1,1,0,0,0,1,0,1,0,0,0,1,1,1,0,0,21,0,1,1,0,0,0,0,75,1,0,1,0,0,0,5.9,0,0,0,0,0,-0.406054,130,0,C
'University College of Northern Denmark',1,1,4,0,1,1,0,0,0,0,0,0,0,0,1,1,0,1,0,1,0,0,1,0,0,1,0,0,1,0,1,1,1,0,1,1,0,0,1,0,0,0,1,0,0,1,1,14.17,0,1,1,0,0,1,0,100,1,0,0,1,1,0,100,0,1,0,0,0,-0.900507,4,0,C
'Tribhuvan University',1,1,8,1,0,0,0,0,1,1,0,0,1,1,0,1,0,0,1,2,1,1,0,0,0,1,0,1,1,1,1,1,1,1,1,0,1,0,1,0,0,0,1,0,1,1,1,15.43,0,1,1,0,0,0,0,75,1,0,1,0,1,0,42.9,0,1,0,0,0,0.953588,3650,1,C
'Autonomous University of Nuevo Leon',1,1,4,1,1,0,0,0,0,0,0,0,0,0,0,1,0,1,1,0,0,0,0,1,0,1,0,1,1,1,1,1,1,0,1,0,1,0,1,0,0,0,1,0,1,1,1,5.74,0,1,1,0,0,0,0,75,1,0,1,1,1,1,56.1,0,1,0,0,0,-0.882963,3650,1,C
'Mohammed VI Polytechnic University',1,1,7,1,0,0,0,1,1,1,1,0,0,0,1,1,0,1,1,0,1,1,1,0,1,1,0,1,1,0,1,1,1,1,0,0,1,1,1,0,0,0,0,0,1,1,1,15.43,0,1,1,1,0,1,0,50,1,0,1,1,1,1,96.4,0,1,0,0,0,2.30567,8,0,C
'Kagawa University',1,1,4,1,0,0,0,0,0,0,0,0,1,0,0,0,0,1,0,0,0,0,1,0,0,1,1,1,1,1,1,1,1,1,0,1,1,0,1,0,0,0,1,1,1,1,1,21,0,1,1,0,0,0,0,90,1,0,0,1,0,0,73.1,0,1,0,0,0,-0.237897,3650,1,C
'University of Washington',0,1,7,1,0,0,0,1,1,1,0,0,0,0,0,1,1,1,1,1,0,0,0,0,0,1,0,1,1,1,1,1,0,1,1,1,1,1,1,0,0,0,0,0,1,1,0,10.86,0,1,0,0,0,0,0,75,1,0,0,1,0,0,71.4,0,1,1,0,0,-0.159553,3650,1,C
'New York University',1,1,5,1,0,1,0,0,0,0,1,0,0,1,0,1,0,1,1,0,0,0,0,0,0,1,0,1,1,0,1,1,1,0,0,0,1,1,1,0,0,1,0,0,1,1,1,19.68,0,1,1,0,1,0,0,90,1,0,0,1,0,0,53.8,0,1,1,0,0,-1.14772,3650,1,C
'Technical University of Cluj-Napoca',1,1,7,1,0,0,0,1,1,1,1,0,0,0,1,1,1,1,1,0,0,0,1,0,0,1,0,1,0,1,1,0,1,1,0,0,1,0,1,0,0,0,1,0,1,1,1,7.02,0,1,1,0,0,0,0,75,1,0,1,1,1,0,4.2,0,0,0,0,0,-1.15533,260,0,C
'University of Vermont',1,1,6,1,0,0,0,1,0,0,0,1,3,0,0,1,1,1,1,1,1,1,0,0,1,1,0,1,1,0,1,1,1,1,1,0,1,1,1,1,0,0,0,0,1,1,1,1.38,0,1,0,0,0,0,0,75,1,0,1,1,1,1,33.3,0,1,1,0,0,-0.586517,3650,1,C
'Shanghai University',1,1,6,0,0,0,0,0,0,0,0,0,0,0,0,1,1,1,1,3,1,1,0,1,0,1,0,1,1,1,1,1,1,1,0,1,0,0,1,1,0,0,1,0,1,0,1,12.63,0,1,0,0,0,0,0,75,1,2,1,0,0,0,0,0,1,0,0,1.09861,0.642422,3650,1,C
'University of Split',1,1,5,0,1,0,0,1,1,1,1,0,0,0,0,1,0,0,0,0,1,1,0,1,0,1,0,1,1,1,1,1,1,1,1,0,1,1,1,0,0,0,1,0,1,1,1,21,0,1,1,0,1,0,0,100,1,0,1,1,1,0,94.6,0,1,1,0,0,1.44018,3650,1,C
'University of Waterloo',0,1,1,1,0,0,0,1,0,0,0,1,4,0,0,1,0,1,1,9,1,1,0,1,0,1,0,1,1,1,1,1,1,0,0,1,0,0,1,0,0,0,1,0,1,1,1,21,0,1,0,0,0,0,0,100,1,0,1,1,1,0,100,0,1,1,0,0,-1.03834,3650,1,C
'University of Bialystok',1,1,20,0,0,0,0,0,0,0,1,1,10,0,1,1,0,1,1,0,1,1,1,1,0,1,0,1,1,1,1,1,1,0,1,0,1,0,1,0,0,0,1,1,1,1,1,21,0,1,1,0,0,0,0,75,1,59,1,1,1,0,100,0,1,1,0,4.09434,-0.879635,113,0,C
'Technical University of Kosice',1,1,2,0,1,0,0,0,0,0,0,1,10,0,1,1,0,1,0,2,1,0,1,0,0,1,0,0,1,1,1,1,1,0,1,0,0,1,0,0,0,0,0,0,1,1,0,21,0,1,0,1,0,0,0,90,1,0,1,1,1,1,100,0,1,1,0,0,-0.831985,14,0,C
'Grinnell College',1,1,5,1,0,0,0,0,0,0,1,1,4,0,0,1,1,1,1,0,1,1,0,0,0,1,0,1,1,0,1,1,1,1,1,1,1,0,0,0,0,0,1,0,0,1,1,12.63,0,1,1,0,0,0,0,90,1,0,1,1,1,1,88.9,0,1,1,0,0,-0.389505,3650,1,C
'Aalborg University',0,1,5,0,0,0,0,1,0,0,0,0,0,0,1,1,0,1,1,6,1,1,1,0,1,1,0,1,1,0,1,1,1,0,1,0,1,1,1,0,0,0,1,0,0,1,1,15.77,0,1,0,0,0,0,0,90,1,0,1,1,1,1,8.7,0,1,1,0,0,0.851254,0,0,C
'Aix-Marseille University',1,1,2,0,1,0,0,0,0,0,1,0,0,1,1,1,0,0,0,0,1,1,1,0,0,1,0,1,1,1,1,1,1,0,0,1,1,1,1,1,0,0,0,1,0,1,1,16.88,0,0,1,0,0,0,0,100,1,0,1,1,1,0,24,0,1,1,0,0,-0.357568,0,0,C
'University of Cambridge',1,1,2,0,0,0,0,0,0,0,0,0,0,0,0,1,0,1,1,5,1,1,0,0,0,1,0,1,1,1,1,1,1,0,1,1,1,1,1,0,0,0,0,0,1,1,0,15.43,0,1,0,0,0,0,0,75,1,0,1,1,1,1,72.7,0,1,1,0,0,-1.27588,3650,1,C
'Ivan Franko National University of Lviv',0,1,7,1,1,0,0,1,0,0,1,1,6,0,1,1,0,1,0,0,0,0,1,0,0,1,0,1,1,1,1,1,1,0,1,0,1,0,1,0,0,0,0,0,1,1,1,11.29,0,1,0,0,0,0,0,75,1,0,0,0,1,1,0,1,1,1,0,0,-0.612005,686,0,C
'Rensselaer Polytechnic Institute',1,1,4,0,0,0,0,0,1,1,0,0,0,0,0,1,1,1,1,0,1,1,0,0,0,1,0,1,1,1,1,1,1,0,1,0,1,0,1,0,0,0,1,0,1,1,1,15.43,0,1,1,0,0,0,1,75,1,0,1,0,1,1,100,0,1,1,0,0,-1.3756,3650,1,C
'Toronto Metropolitan University',1,1,8,1,0,1,0,0,0,0,1,0,0,0,0,1,0,1,1,0,1,0,0,0,1,1,0,1,1,0,1,1,1,1,1,1,1,0,1,0,0,0,0,0,0,1,0,21,0,1,0,0,0,0,0,90,1,0,1,1,1,0,85.7,0,1,1,0,0,3.48756,3650,1,C
'University of Rosario',1,1,8,1,1,0,1,1,0,0,1,1,10,1,1,0,0,0,0,6,1,1,0,0,0,1,0,0,1,1,1,1,1,0,0,0,1,0,1,0,0,0,1,0,0,1,1,12.63,0,1,1,1,0,0,0,100,1,4,1,1,1,1,72.9,0,1,0,0,1.60944,-0.0700972,0,0,C
'University of Catania',1,1,2,1,1,0,0,0,0,0,0,0,0,1,1,1,0,1,0,0,1,1,0,0,0,1,0,1,0,0,1,1,1,1,1,0,1,0,1,1,0,0,1,1,0,1,1,17.57,0,1,1,0,0,0,0,75,1,0,1,1,1,0,85.7,0,1,0,0,0,-0.88895,284,0,C
'University of Botswana',1,1,5,1,0,0,0,0,0,0,0,1,2,0,1,1,0,1,1,5,1,1,1,0,0,1,0,1,0,0,0,1,1,0,1,0,1,0,1,0,0,1,1,0,1,1,0,5.15,0,1,0,0,0,0,0,75,1,1,0,0,1,1,84.2,0,1,0,0,0.693147,0.24181,0,0,C
'Trinity College',0,1,3,1,0,0,0,0,0,0,0,1,6,1,1,1,0,1,1,19,1,1,1,1,1,1,0,1,1,0,1,1,1,0,0,1,1,1,0,0,0,0,1,0,1,1,1,21,0,1,0,0,0,0,0,100,1,0,1,1,1,1,55.6,0,1,0,0,0,-0.0870461,0,0,C
'Tokyo Medical and Dental University',1,1,4,1,0,0,1,1,0,0,1,1,6,1,1,1,0,1,0,20,1,0,1,1,0,1,0,1,1,0,1,1,1,1,1,0,1,1,1,0,0,0,0,1,1,1,0,15.91,0,1,1,0,0,0,0,75,1,0,1,0,1,0,2.6,0,1,0,0,0,-1.31025,662,0,C
'Athens University of Economics and Business',1,1,0,0,1,0,0,1,0,0,1,0,1,1,1,1,1,0,0,0,1,1,1,1,0,1,0,1,1,1,1,1,1,0,1,1,1,1,1,1,0,0,0,1,1,1,0,4.48,0,1,0,0,0,0,1,75,1,0,1,1,1,0,89.5,0,1,0,0,0,0.0432743,31,0,C
'Bowdoin College',1,1,8,1,1,0,0,0,0,0,1,0,0,0,0,1,1,1,0,0,0,0,0,1,0,1,0,1,1,0,1,1,1,1,0,1,1,1,1,0,0,0,0,0,0,1,0,21,0,1,0,0,0,0,0,75,1,0,1,1,1,1,90.9,0,1,1,0,0,-0.254227,3650,1,C
'University of Innsbruck',1,1,0,1,1,0,0,0,1,1,0,0,1,0,0,1,1,1,1,0,1,1,0,0,1,1,0,1,1,1,1,1,1,0,0,1,1,0,1,1,0,0,1,0,0,1,1,13.2,0,0,1,1,0,1,0,100,1,0,1,0,1,0,17.6,0,1,1,0,0,-0.120896,3650,1,C
'University of Granada',1,1,6,1,0,1,0,1,0,0,0,0,0,0,0,1,0,0,1,1,1,1,0,0,0,1,0,1,1,1,1,1,1,0,0,1,0,0,1,0,0,0,0,1,1,1,1,6.04,0,1,1,0,0,0,0,100,1,0,1,1,1,0,100,0,1,1,0,0,0.493085,3650,1,C
'Middlebury College',1,1,1,1,0,0,0,0,0,0,1,0,0,0,0,1,0,1,1,0,0,1,0,1,1,1,0,1,1,1,1,1,1,1,0,1,1,1,0,1,0,0,0,0,1,1,0,16.29,0,1,1,0,0,0,1,90,1,0,1,1,1,1,100,0,1,0,0,0,-1.32423,3650,1,C
'Cardinal Stefan Wyszynski University',1,1,1,1,1,0,0,0,1,1,0,0,0,0,1,0,1,0,0,0,1,1,1,1,0,1,0,0,1,1,1,1,1,1,1,0,0,1,1,0,0,0,1,0,1,1,1,15.13,0,1,1,0,0,0,0,90,1,0,1,0,1,0,21.2,0,1,0,0,0,2.5999,116,0,C
'Indian Statistical Institute',1,1,8,1,0,0,0,0,0,0,1,0,1,1,0,1,1,1,1,0,0,0,0,0,0,1,0,1,1,0,1,1,1,1,1,0,1,0,1,1,0,0,0,0,1,1,1,13.92,0,1,0,0,0,0,0,75,1,0,1,1,1,0,12.5,0,0,0,0,0,-0.833733,3650,1,C
'University of Nis',1,1,3,1,1,0,0,0,1,1,0,1,3,0,1,1,0,0,0,0,1,1,1,1,0,1,0,1,1,1,1,1,1,1,0,0,0,0,1,1,0,0,0,0,1,1,0,21,0,1,1,0,0,0,0,75,1,2,1,1,0,0,72.7,0,1,0,0,1.09861,1.87476,5,0,C
'University of Turku',0,1,6,0,1,0,0,0,0,0,0,1,10,1,1,1,0,1,1,20,0,0,1,0,0,1,0,0,1,1,1,1,0,0,1,1,1,0,1,1,0,0,0,0,0,1,0,18.76,0,1,0,0,0,1,0,100,1,0,1,1,1,0,100,0,1,0,0,0,1.89882,0,0,C
'Sogang University',1,1,11,0,0,0,0,0,0,0,0,1,10,1,0,1,1,1,1,0,0,0,0,0,1,1,0,1,1,1,1,1,1,1,0,0,0,0,0,1,0,0,1,1,1,1,1,21,0,1,0,1,0,0,0,75,1,0,0,0,1,1,100,0,1,0,0,0,-0.0472647,3650,1,C
'National University of Kyiv-Mohyla Academy',1,1,5,1,0,0,1,1,0,0,1,1,2,0,0,1,0,1,0,0,0,0,0,0,0,1,0,1,1,1,0,1,1,0,1,1,0,0,1,0,1,0,0,0,1,1,0,19.95,0,1,0,0,0,0,0,75,1,0,1,1,1,1,88.2,0,1,0,0,0,0.358196,3650,1,C
'Heriot-Watt University',0,1,2,1,1,0,0,1,0,0,1,0,0,0,1,1,1,0,0,0,0,0,0,0,0,1,0,1,0,0,0,1,1,1,1,1,0,1,1,0,0,0,1,0,1,1,1,21,0,1,0,0,0,0,0,90,1,0,1,1,1,1,23.3,0,1,1,0,0,-1.45266,5,0,C
'Emory University',1,1,2,1,0,0,0,0,0,0,0,0,1,0,0,1,0,1,1,0,1,1,0,1,1,1,0,1,1,1,1,1,1,0,0,1,1,1,1,0,0,0,1,0,1,1,1,21,0,1,1,0,0,0,0,100,1,0,1,0,1,1,37.9,0,1,1,0,0,0.0579683,3650,1,C
'Gifu University',1,1,6,1,0,0,0,0,1,1,0,0,1,0,1,1,1,1,0,2,0,0,1,0,0,1,0,1,1,1,1,1,0,0,0,1,1,1,1,0,0,0,0,0,1,1,0,21,0,1,1,0,0,1,0,75,1,0,0,1,1,0,89.5,0,1,0,0,0,0.309317,4,0,C
'University of Zululand',1,1,7,1,1,0,0,0,1,0,1,1,4,1,0,1,1,1,0,1,1,1,1,0,0,1,1,1,1,0,1,1,1,0,1,1,1,0,1,1,0,0,0,0,1,1,0,8.21,0,1,0,0,0,0,0,90,1,0,1,0,1,0,55.2,0,1,0,0,0,0.885258,3650,1,C
'Alexandru Ioan Cuza University',1,1,0,1,1,1,0,0,0,0,1,0,0,0,0,1,0,1,1,1,1,1,0,0,0,1,1,1,1,1,1,1,1,1,0,0,1,0,1,0,0,0,0,0,0,0,1,4.67,0,1,1,0,0,0,1,90,1,0,1,0,1,0,65,0,1,0,0,0,0.287974,3650,1,C
'University of Santo Tomas',1,1,10,1,0,0,0,1,1,0,1,0,0,1,1,1,0,1,1,6,1,1,0,1,1,1,0,0,0,0,1,1,1,0,0,1,1,1,1,0,0,0,0,0,1,1,0,6.78,0,1,1,0,0,0,0,90,1,0,1,1,1,1,0,0,1,0,0,0,0.658676,4,0,C
'Democritus University of Thrace',1,1,1,1,1,1,0,0,0,0,1,0,0,1,0,1,1,0,1,1,1,1,0,0,0,1,0,1,1,1,0,1,1,0,1,1,1,1,1,1,0,0,0,0,1,1,0,16.95,0,1,0,0,0,0,0,90,1,0,1,1,1,0,15,0,1,1,0,0,-0.412269,3650,1,C
'Czech Technical University in Prague',1,1,2,0,1,0,0,0,0,0,1,0,0,1,0,1,0,1,1,2,1,1,0,0,0,1,0,1,1,1,1,1,1,0,1,1,1,1,1,0,0,0,0,0,1,1,1,1.41,0,1,1,0,0,0,0,75,1,0,1,1,1,0,6.7,0,1,0,0,0,-0.612901,3650,1,C
'University of Cantabria',1,1,5,1,1,0,0,0,0,0,1,0,0,0,0,1,0,1,0,0,0,0,0,0,0,1,0,1,1,1,1,1,1,0,0,0,0,1,1,1,0,0,0,1,0,1,0,7.59,0,1,0,0,0,0,0,75,1,0,1,1,0,0,92.6,0,1,0,0,0,-0.263048,3650,1,C
'University of Basilicata',1,1,5,1,1,0,0,0,0,0,0,0,0,1,0,0,0,1,0,0,0,0,0,0,1,1,0,0,1,1,0,0,1,1,0,0,1,0,1,1,0,1,1,0,0,1,1,21,0,1,1,0,0,0,0,75,1,2,0,1,1,0,100,0,1,0,0,1.09861,-0.712322,3650,1,C
'ISCTE University Institute of Lisbon',1,1,6,1,1,0,0,1,0,0,1,1,6,0,1,1,0,1,1,0,1,1,0,0,0,1,0,1,1,1,0,1,1,1,1,0,1,0,0,0,0,0,0,0,1,1,0,21,0,1,0,0,0,0,0,75,1,0,1,1,1,0,100,0,1,0,0,0,0.193569,228,0,C
'Institute of Technology of Cambodia',1,1,9,1,0,0,0,0,0,0,0,0,0,0,0,1,0,1,1,2,1,0,0,0,0,1,1,1,1,0,1,1,1,1,1,0,1,0,1,0,0,0,1,0,0,1,1,10.35,0,1,1,0,0,0,0,90,1,0,1,0,1,1,95.6,0,1,0,0,0,0.794526,3650,1,C
'Bina Nusantara University',1,1,4,1,0,0,0,0,1,1,1,0,0,0,1,1,0,0,1,1,1,1,1,0,1,1,0,1,1,1,1,1,1,1,0,0,0,0,0,0,0,0,1,1,0,0,0,15.91,0,1,1,0,0,0,0,75,1,0,0,0,1,0,87.5,0,1,0,0,0,0.0805591,8,0,C
'Plovdiv University Paisii Hilendarski',1,1,7,1,0,0,0,0,0,0,0,0,0,0,0,1,0,1,1,2,1,1,0,0,0,1,1,1,0,1,1,0,1,1,1,0,0,0,0,0,0,0,0,0,1,1,0,21,0,1,0,0,0,0,0,75,1,0,1,1,1,1,92.7,0,1,0,0,0,-0.550741,3650,1,C
'Saxion University of Applied Sciences',1,1,5,1,1,0,0,0,0,0,0,0,1,0,1,1,0,1,1,0,0,0,0,0,1,1,0,0,1,0,0,1,1,1,0,0,1,1,1,0,0,0,1,0,1,1,1,16.82,0,1,0,0,0,1,0,100,1,0,1,1,1,0,83.3,0,1,0,0,0,1.11339,0,0,C
'Chang Gung University',1,1,6,1,0,0,0,0,0,0,1,0,0,1,0,1,1,1,0,0,1,1,0,0,0,1,0,1,1,0,1,1,1,0,1,0,1,0,1,1,0,0,1,1,1,1,1,15.43,0,1,1,0,0,0,0,75,1,0,1,0,1,0,90,0,1,0,0,0,-0.406054,3650,1,C
'University of Reading',1,1,2,1,0,0,0,1,0,0,0,1,2,1,0,1,0,0,0,0,0,0,0,0,0,1,0,1,1,1,1,1,1,0,0,1,1,0,1,0,1,0,1,1,1,1,1,21,0,1,1,0,0,0,0,75,1,1,0,1,1,1,25,0,1,1,0,0.693147,-1.09571,3650,1,C
'Asia University Taiwan',1,1,3,1,1,0,0,1,0,0,1,1,10,1,1,1,1,1,0,0,0,1,0,0,0,1,0,1,1,0,1,1,0,0,1,1,1,0,1,1,1,0,0,1,1,1,0,18.58,0,1,0,0,0,1,0,50,1,1,1,1,1,0,81.1,0,1,0,0,0.693147,-0.31435,0,0,C
'HAN University of Applied Sciences',1,1,8,0,1,1,0,0,0,0,0,1,5,1,0,1,1,1,1,1,1,1,1,0,0,1,0,0,1,0,1,1,1,0,0,1,1,1,1,1,0,0,0,0,1,1,1,21,0,1,0,0,0,1,0,100,1,0,1,1,1,0,90.9,0,1,0,1,0,4.2248,3650,1,C
'Federal University of Technology Owerri',1,1,12,0,0,0,0,0,0,0,0,1,6,0,1,1,0,1,1,2,1,1,1,1,0,1,0,1,1,0,1,1,0,0,1,1,1,0,1,1,0,1,1,0,1,0,1,19.9,0,1,0,1,0,0,0,75,1,0,1,0,1,1,63.6,0,1,0,0,0,-0.610745,24,0,C
'Tokyo Institute of Technology',1,1,6,1,1,0,0,0,0,0,1,0,0,0,1,1,1,1,1,1,1,1,1,0,0,1,0,1,1,1,1,1,0,0,0,0,1,0,1,0,0,0,0,1,1,1,1,12.63,0,1,1,0,0,0,0,90,1,0,1,1,1,0,70.5,0,1,1,0,0,-1.79466,657,0,C
'Federal University of Rio Grande',1,1,10,1,1,1,0,0,0,0,0,0,0,0,0,1,1,1,0,0,1,1,0,0,0,1,0,1,1,0,0,1,1,1,1,0,0,1,1,1,0,0,0,1,0,1,0,12.81,0,1,1,0,0,0,0,75,1,10,1,1,1,0,66.7,0,1,1,0,2.3979,-0.730936,3650,1,C
'National University of Laos',1,1,10,0,1,0,0,0,0,0,1,0,0,0,1,1,0,1,1,0,1,1,0,0,0,1,0,1,1,1,1,1,1,1,1,0,1,0,0,0,0,0,1,0,1,1,0,15.43,0,1,1,0,0,0,0,75,1,2,1,0,0,1,30.3,0,0,0,0,1.09861,-0.321173,187,0,C
'Technical University of Denmark',0,1,7,1,1,0,0,0,1,1,0,1,3,0,0,1,1,0,0,10,1,1,0,0,1,0,0,0,0,1,0,1,1,0,1,1,1,0,1,1,0,0,1,0,1,1,1,21,0,0,0,0,0,0,0,90,1,0,1,1,0,0,40,0,1,0,0,0,0.53068,3650,1,C
OsloMet,1,1,7,1,1,0,0,0,0,0,0,0,1,0,0,1,0,1,0,0,1,1,0,0,0,1,0,0,0,0,1,1,1,1,1,1,1,0,1,0,0,0,0,0,0,1,0,15.91,0,1,0,0,0,0,1,90,1,0,0,1,1,0,100,0,1,0,0,0,0.0112624,3650,1,C
'Northeastern University',1,1,20,1,0,0,0,0,0,0,0,0,0,0,0,1,0,1,1,0,1,0,0,1,1,1,0,1,1,1,1,1,1,0,1,1,1,0,0,0,0,0,0,0,1,1,0,9.93,0,1,0,1,0,0,0,90,1,2,1,0,1,1,46.7,0,1,1,0,1.09861,-0.131793,3650,1,C
'International Islamic University Malaysia',1,1,9,1,0,0,0,0,0,0,1,0,0,0,1,1,1,1,0,0,1,0,0,0,0,1,0,1,1,0,1,1,0,1,1,0,1,0,1,0,0,0,1,1,0,1,1,21,0,1,1,0,0,1,0,90,1,0,1,0,1,0,26.3,0,1,1,0,0,0.492324,0,0,C
'University College Dublin',1,1,4,1,0,0,1,1,0,0,1,0,0,0,0,1,0,0,1,2,1,1,0,0,0,1,0,0,1,1,1,1,1,0,1,1,1,0,0,0,0,0,1,0,1,1,1,14.78,0,1,0,0,0,0,1,100,1,0,1,1,1,1,100,0,1,1,0,0,0.430531,3650,1,C
'Polytechnic Institute of Lisbon',1,1,1,1,1,0,0,0,0,0,1,1,10,0,1,1,0,1,1,3,1,1,1,0,0,1,0,1,1,0,1,1,1,0,0,0,1,0,1,1,0,0,1,0,1,1,1,7.13,0,1,1,0,0,0,0,75,1,0,1,0,1,0,94.4,0,1,0,0,0,-0.314998,28,0,C
'Nanchang University',1,1,8,0,0,0,0,0,0,0,1,0,0,0,1,1,0,1,1,0,0,0,0,0,1,1,0,1,1,1,0,1,1,0,1,1,0,0,1,0,0,1,1,0,1,1,0,21,0,1,1,0,0,0,0,75,0,0,1,0,1,0,0,0,0,0,0,0,0.715263,33,0,C
'Wageningen University & Research',0,1,6,1,1,0,0,0,0,0,0,0,0,0,0,1,0,1,1,0,1,1,1,0,1,1,0,0,1,0,1,1,1,0,1,1,1,1,1,0,0,0,0,0,0,1,1,19.42,0,1,0,0,0,0,0,80,1,0,1,1,1,0,11.1,0,1,1,0,0,0.392217,3650,1,C
'Gachon University',1,1,6,0,0,0,0,0,1,1,0,1,4,0,0,1,0,1,0,0,0,0,1,0,1,1,0,1,1,1,1,1,1,1,0,0,0,0,0,0,1,0,0,1,1,1,0,12.63,0,1,0,0,0,1,0,75,1,0,0,1,1,1,16.7,0,1,0,0,0,-0.630398,3650,1,C
'University of Palermo',1,1,3,0,0,1,0,1,1,1,0,0,0,0,0,1,0,1,1,0,0,0,0,0,0,1,1,0,1,0,1,1,1,1,0,0,0,1,1,1,1,0,1,0,0,1,1,12.63,0,1,1,1,0,0,0,75,1,0,1,1,1,0,100,0,1,0,0,0,-0.0539966,3650,1,C
'UCL University College',1,1,7,0,1,0,0,0,0,0,0,1,10,0,1,1,0,1,1,0,1,1,1,0,0,1,0,0,0,0,0,1,1,0,1,1,0,1,1,0,0,0,1,0,1,1,1,15.43,0,1,1,1,0,1,0,100,1,0,1,0,1,1,73.8,0,1,0,0,0,0.89175,0,0,C
UNIST,1,1,3,1,1,0,0,0,0,0,1,1,10,0,1,1,0,1,0,0,0,0,0,1,1,1,0,1,1,0,1,1,1,1,0,0,0,1,0,0,0,0,1,1,1,1,1,21,0,1,1,0,0,1,0,75,1,0,1,0,1,1,11.2,0,1,0,0,0,0.225841,44,0,C
'University of Chile',1,1,7,1,1,0,0,0,1,0,1,0,0,0,0,0,1,0,0,0,0,0,0,0,0,1,0,1,1,1,1,1,1,0,1,0,0,0,1,0,0,0,1,0,1,1,1,21,0,1,1,0,0,0,0,75,1,0,1,1,1,1,40,0,1,0,0,0,1.51917,3650,1,C
'Medical University of Warsaw',1,1,6,1,1,0,0,0,1,2,0,1,10,0,0,1,1,1,1,0,1,1,1,1,0,1,0,1,1,0,1,1,1,0,1,0,1,1,0,1,0,0,1,0,1,1,1,14.16,0,1,1,0,0,0,0,75,1,0,0,1,1,0,100,0,1,1,0,0,0.207363,3650,1,C
'Rzeszow University of Technology',1,1,4,1,0,0,0,0,0,0,0,0,0,0,0,1,0,0,0,0,1,1,0,0,0,1,0,1,1,1,1,1,1,0,1,0,0,0,1,1,0,0,1,1,0,1,1,21,0,1,1,0,0,0,0,75,1,2,1,0,1,0,78.6,0,1,1,0,1.09861,0.569755,3650,1,C
'Felix Houphouet-Boigny University',1,1,6,1,0,0,0,0,0,0,0,0,0,1,1,1,1,0,1,0,1,1,1,1,0,1,0,1,1,1,1,1,1,1,0,0,1,0,0,0,0,0,0,0,1,1,0,12.63,0,1,0,0,0,0,0,90,1,1,1,0,1,1,17.6,0,1,0,0,0.693147,-1.07089,454,0,C
'Massachusetts Institute of Technology',0,1,11,1,0,0,0,0,0,0,0,0,0,0,1,1,0,1,1,1,1,1,0,1,0,0,0,1,1,0,1,1,0,1,0,1,1,0,1,0,0,0,0,0,0,1,1,21,0,0,0,0,0,1,0,75,1,0,1,0,1,1,100,0,1,1,0,0,-1.81562,0,0,C
'Federal University of Espirito Santo',1,1,7,1,1,1,0,1,0,0,0,0,0,0,0,0,0,1,0,0,0,0,0,0,0,1,0,1,1,0,1,1,1,1,1,0,0,0,1,0,0,0,0,0,1,0,0,21,0,1,0,0,0,0,0,75,1,0,1,0,1,0,52.9,0,1,1,0,0,-0.98394,3650,1,C
'Design School Kolding',1,1,5,1,1,0,0,0,0,0,0,1,4,0,1,1,0,0,1,0,1,1,1,0,1,1,0,1,1,0,1,1,1,0,0,1,1,0,1,0,0,0,1,0,0,1,1,21,0,1,0,0,0,1,0,75,1,0,1,1,1,1,95.7,0,1,0,0,0,0.401917,6,0,C
'University of Duisburg-Essen',1,1,7,0,1,0,0,0,0,0,0,1,3,0,1,1,1,1,1,0,1,1,1,0,0,1,0,1,1,0,0,1,1,0,0,1,1,1,1,1,0,0,1,0,1,1,1,21,0,1,1,0,0,0,0,75,1,0,1,0,1,0,71.4,0,1,1,0,0,0.90048,4,0,C
'University of Oslo',1,1,1,1,1,0,0,0,1,1,1,0,0,0,1,1,0,0,0,17,1,1,1,0,0,0,0,0,1,0,1,1,1,0,1,0,0,0,1,1,0,0,1,0,0,1,0,21,0,0,0,0,0,0,0,75,1,0,1,1,1,0,100,0,1,1,0,0,-0.713303,0,0,C
'Hassan II University of Casablanca',1,1,3,1,1,0,0,0,1,1,0,1,10,0,1,1,0,1,0,1,1,1,0,1,0,1,0,1,1,0,0,1,1,1,1,1,0,0,1,1,0,0,1,0,1,1,1,21,0,1,1,0,0,0,0,75,1,0,0,0,1,0,23.7,0,1,0,0,0,1.18959,957,0,C
'Mekelle University',1,1,6,1,0,0,0,1,0,0,1,0,0,1,1,1,0,0,1,0,0,0,0,0,0,0,0,0,1,0,1,1,1,0,1,0,1,0,1,1,0,0,0,0,1,1,0,15.33,0,0,1,0,0,0,0,90,1,21,1,1,1,1,100,0,1,0,0,3.09104,-1.20932,7,0,C
'Christ University',1,1,2,1,1,0,0,0,0,0,0,0,0,1,0,1,0,0,1,0,1,0,0,1,0,1,0,1,1,0,1,1,1,1,1,0,1,1,1,0,0,0,0,0,1,1,1,12.63,0,1,1,0,0,0,0,75,1,0,0,1,1,1,100,0,1,1,0,0,0.403982,3650,1,C
'University of Oulu',1,1,2,1,1,0,0,1,0,0,0,1,2,1,1,1,0,1,0,0,0,0,1,0,0,1,0,0,1,1,0,1,0,0,1,1,1,1,1,0,0,0,1,0,0,1,1,15.92,0,1,1,0,0,1,0,75,1,0,1,1,1,0,13.3,0,1,0,0,0,-0.593997,8,0,C
'Kabul University',1,1,2,1,0,0,0,0,0,0,1,0,0,1,1,1,0,0,1,0,1,1,0,0,0,1,1,1,1,1,1,1,1,0,0,1,0,1,0,0,0,0,0,0,1,1,0,11.37,0,1,1,0,0,0,0,75,1,2,1,0,1,1,43.3,0,1,0,0,1.09861,0.438362,0,0,C
'University of Vaasa',1,1,9,1,1,0,0,1,1,2,0,1,10,1,1,1,0,1,0,8,1,0,1,0,0,1,0,0,1,0,0,1,0,0,1,1,1,1,1,0,0,0,1,0,0,1,1,21,0,1,1,0,0,0,0,100,1,0,1,0,1,0,100,0,1,0,0,0,0.915757,0,0,C
'Federation University Australia',1,1,0,0,0,0,0,1,0,0,0,0,0,0,0,0,0,1,0,0,1,1,0,0,0,1,0,1,1,0,1,1,1,1,1,1,0,1,1,0,0,0,1,0,1,1,1,21,0,1,1,1,0,0,0,100,1,0,1,1,1,1,50,0,1,1,0,0,-0.53571,3650,1,C
'University of Calabria',1,1,7,1,0,0,0,0,0,0,1,0,0,0,1,0,0,1,0,0,1,1,1,1,0,1,0,1,0,0,1,1,1,0,0,0,1,0,1,1,0,0,1,0,1,1,1,17.4,0,1,0,0,0,0,0,100,1,7,1,1,1,0,100,0,1,0,0,2.07944,-1.43872,0,0,C
'Alexandria University',1,1,9,0,1,0,0,1,1,1,1,1,10,0,0,1,0,0,1,1,1,1,0,0,1,1,0,1,1,0,1,1,1,1,1,0,1,1,1,0,0,0,1,0,1,1,1,15.43,0,1,1,0,0,0,0,75,1,2,1,1,1,1,77.8,0,1,0,0,1.09861,0.802513,3650,1,C
'University of Kelaniya',1,1,14,1,0,0,0,1,0,0,0,0,0,1,0,1,0,0,1,0,0,0,0,0,0,1,0,1,1,1,1,1,1,0,1,1,0,0,1,1,0,0,0,0,0,0,0,21,0,1,1,0,0,0,0,55,1,0,1,0,1,0,0,0,1,0,0,0,-0.697513,3650,1,C
'KU Leuven',1,1,2,1,1,0,0,0,0,0,1,0,0,0,0,1,0,1,1,0,0,0,1,0,0,1,0,0,0,1,0,1,1,0,0,1,1,1,1,1,0,0,0,0,1,1,0,12.63,0,1,0,0,0,0,0,75,1,0,1,1,1,0,100,0,1,1,0,0,-0.156784,3650,1,C
'Aristotle University of Thessaloniki',1,1,0,0,1,0,0,0,0,0,0,0,1,1,1,1,0,0,1,5,1,1,1,0,0,1,0,1,0,1,1,0,1,0,0,0,0,1,1,0,0,0,0,0,1,1,1,12.63,0,1,1,0,0,1,0,90,1,0,1,0,1,0,77.8,0,1,0,0,0,0.97102,0,0,C
'Bond University',1,1,0,1,1,0,0,1,0,0,0,0,1,1,0,0,0,1,0,0,0,0,0,0,1,1,0,1,1,0,1,1,1,0,1,1,1,1,1,1,0,0,0,0,0,1,1,17.06,0,1,0,0,0,0,1,100,1,0,1,1,1,1,75,0,1,0,0,0,-0.102445,3650,1,C
'University of Maryland, College Park',1,1,0,0,0,0,0,1,0,0,0,1,3,0,0,1,1,1,1,0,0,0,0,1,1,1,0,1,1,1,1,1,1,0,0,0,0,1,1,1,0,0,1,0,0,1,0,21,0,1,1,1,0,0,0,75,1,0,1,1,1,1,100,0,1,0,0,0,-0.296074,3650,1,C
'University of Zagreb Faculty',1,1,6,1,0,0,0,0,0,0,0,1,4,0,0,1,0,1,1,0,1,1,0,0,1,1,0,1,1,0,1,1,1,0,0,0,0,0,1,0,0,1,0,0,1,1,0,14.99,0,1,0,0,0,0,0,75,1,0,1,0,1,0,28.6,0,1,1,0,0,-0.569371,3650,1,C
'Ruhr University Bochum',1,1,2,0,1,0,0,1,0,0,1,1,8,0,0,1,1,1,1,1,1,1,0,1,1,1,0,1,1,0,1,1,1,0,0,1,1,1,1,0,0,0,1,0,0,1,1,8.28,0,1,1,0,0,0,1,100,1,0,1,1,1,0,100,0,1,1,0,0,0.902177,3650,1,C
'Mie University',1,1,5,1,0,0,0,0,0,0,1,1,10,0,0,1,0,1,1,0,1,0,1,0,0,1,0,1,1,1,1,1,0,1,0,0,0,0,1,0,0,0,1,1,1,1,1,21,0,1,1,0,0,0,0,100,1,1,0,1,1,0,2.6,0,1,0,0,0.693147,-0.227061,3650,1,C
'University of Rajshahi',1,1,9,0,0,0,0,0,0,0,0,1,7,1,0,1,0,1,1,0,0,0,1,0,0,1,0,1,1,0,1,1,1,0,1,0,1,0,1,1,0,0,0,1,1,1,1,12.63,0,1,1,0,0,0,0,90,1,0,1,0,1,1,5.9,0,1,0,0,0,-1.16581,3650,1,C
'National University of San Luis',1,1,6,1,0,0,0,0,0,0,1,1,9,1,0,1,1,0,1,0,1,1,0,1,0,1,0,0,0,1,1,0,0,1,1,0,1,0,1,0,0,0,1,1,0,1,1,13.06,0,1,1,0,0,0,0,75,1,0,1,1,1,0,98.6,0,1,0,0,0,-0.448621,3650,1,C
'Universiti Malaysia Sarawak',1,1,6,0,0,0,0,0,0,0,1,1,4,0,1,0,0,1,0,0,0,0,0,1,0,1,0,1,1,1,1,1,1,0,0,0,0,0,0,0,0,0,0,1,1,0,0,15.33,0,0,1,0,0,0,0,75,1,0,1,1,1,1,100,0,1,1,0,0,-0.35348,167,0,C
'Veracruzana University',1,1,9,1,1,0,0,0,0,0,0,0,1,0,0,0,0,1,0,0,0,1,0,0,0,1,0,0,1,1,0,1,1,0,0,0,0,0,1,0,1,0,0,0,1,1,0,15.43,0,1,0,0,0,0,0,75,1,0,1,1,1,1,100,0,1,0,0,0,-0.865853,3650,1,C
'Shizuoka University',1,1,6,0,0,0,0,0,0,0,1,1,4,0,1,1,0,1,1,0,1,1,0,0,0,1,0,1,1,1,1,1,0,1,1,0,1,0,0,1,0,0,1,0,1,0,1,12.09,0,1,1,0,0,0,0,75,1,1,0,1,0,0,8.4,0,1,0,0,0.693147,-0.670731,102,0,C
'University of East Anglia',1,1,0,1,0,0,0,1,0,0,1,0,0,0,0,1,0,0,1,0,1,1,0,1,0,1,0,0,1,0,1,1,1,1,0,1,1,1,1,0,0,0,1,0,1,1,1,20.29,0,1,0,0,0,0,1,90,1,0,1,1,1,1,100,0,1,1,0,0,-0.906811,3650,1,C
'National Technical University of Athens',1,1,6,0,1,0,0,0,0,0,0,0,0,0,0,1,0,1,0,0,1,1,0,0,0,1,0,1,0,1,0,1,1,0,1,0,0,0,1,0,0,0,1,0,1,1,1,9.01,0,1,0,0,0,0,0,90,1,0,0,0,1,0,73.8,0,1,0,0,0,0.870346,3650,1,C
'KTH Royal Institute of Technology',1,1,3,1,1,0,1,1,0,0,0,0,0,0,0,1,0,1,1,0,1,1,0,0,0,1,0,0,0,0,0,1,1,0,1,1,1,0,1,1,0,0,1,0,0,0,1,15.69,0,0,1,0,0,0,0,75,1,0,1,1,1,0,93.8,0,1,1,0,0,-0.35975,3650,1,C
'Friedrich Schiller University Jena',0,1,6,0,1,0,0,1,1,0,1,1,6,0,1,1,0,0,1,1,1,1,1,0,1,1,0,0,0,0,0,1,1,0,0,1,0,1,1,1,0,0,0,0,0,1,1,21,0,1,0,0,0,1,0,100,1,0,1,1,1,0,100,0,1,1,0,0,-0.945852,0,0,C
'University of La Frontera',1,1,9,1,0,0,0,0,1,1,0,1,10,0,0,1,1,1,0,1,1,1,0,1,0,1,0,0,0,1,1,1,1,0,0,0,0,0,0,0,0,0,0,0,0,1,0,21,0,1,0,0,0,0,0,90,1,0,1,0,1,1,7.4,0,1,0,0,0,1.22353,3650,1,C
'Sapienza University of Rome',1,1,6,1,1,0,1,1,0,0,1,0,0,0,1,1,0,0,0,2,1,1,1,0,0,1,0,1,0,0,0,1,1,1,0,0,0,0,0,1,0,0,1,0,1,1,1,21,0,1,1,0,0,0,0,90,1,0,1,1,0,1,100,0,1,0,0,0,-1.46881,3,0,C
'Utrecht University',1,1,5,1,1,0,0,0,0,0,0,0,0,0,0,1,0,0,1,0,0,0,0,0,0,1,0,1,1,0,1,1,1,0,1,1,1,0,1,1,0,0,0,0,0,1,0,10.37,0,1,1,0,0,0,0,100,1,0,1,1,1,0,33.3,0,1,0,0,0,-1.32729,3650,1,C
'University College Absalon',1,1,7,1,1,0,0,0,0,0,0,1,3,0,0,1,0,1,0,0,1,1,1,0,1,1,0,0,1,0,1,1,1,0,0,1,0,0,1,0,0,0,1,0,0,1,1,9.54,0,1,1,0,0,0,0,75,1,0,1,0,1,1,100,0,1,0,0,0,0.786751,3650,1,C
'Kazimierz Wielki University',1,1,3,1,0,0,0,0,0,0,0,1,3,0,1,1,0,0,0,0,1,1,1,0,0,1,0,0,1,0,1,1,1,1,0,0,0,0,1,0,0,0,1,0,0,0,0,21,0,1,1,0,0,0,0,75,1,0,1,1,1,0,94.7,0,1,0,0,0,1.30439,7,0,C
'University of Arkansas',1,1,1,1,0,0,0,1,1,0,1,1,7,0,0,1,0,1,1,2,1,1,0,0,1,1,0,1,1,0,1,1,0,1,1,1,1,0,1,0,0,0,1,0,1,1,1,15.43,0,1,1,0,0,0,1,90,1,1,1,0,1,1,77.8,0,1,1,0,0.693147,0.277976,3650,1,C
'Tata Institute of Fundamental Research',1,1,1,0,0,0,0,0,0,0,1,0,0,0,0,1,0,1,0,0,0,0,0,0,0,1,0,1,1,0,1,1,1,0,0,1,1,1,1,0,0,0,1,1,1,1,1,17.04,0,1,1,1,0,0,0,75,1,0,0,1,1,1,100,0,1,1,0,0,0.432822,3650,1,C
'University of Kragujevac',0,1,0,0,1,0,0,0,0,0,1,0,0,0,1,0,0,1,0,0,1,1,0,1,0,1,0,0,0,0,1,1,1,1,0,0,1,0,0,0,0,1,0,0,0,0,0,21,0,1,0,0,0,0,0,75,1,0,0,1,1,0,100,0,1,0,0,0,-1.15479,0,0,C
'University of Freiburg',1,1,7,1,1,0,0,1,0,0,0,0,1,0,0,1,0,1,0,0,1,1,0,0,1,1,0,0,0,0,1,1,1,0,0,0,0,1,1,0,0,0,1,0,0,1,1,14.35,0,1,0,0,0,0,0,90,1,0,1,0,1,0,71.2,0,1,1,0,0,0.43344,3650,1,C
'Universiti Malaysia Terengganu',1,1,0,0,1,0,0,1,0,0,1,0,0,0,0,1,0,1,0,1,1,1,0,1,0,1,0,1,1,0,1,1,1,0,0,1,1,0,1,0,0,1,1,0,0,1,1,21,0,1,1,0,0,0,0,90,1,0,1,0,1,0,0,0,1,0,0,0,1.53117,3650,1,C
'Ludwig Maximilian University of Munich',1,1,3,1,0,0,0,1,0,0,0,1,3,0,0,1,0,1,0,2,0,0,0,0,0,0,0,0,0,0,0,1,1,0,0,1,0,0,1,0,0,0,1,1,1,1,1,21,0,0,1,0,0,0,0,90,1,0,1,1,1,1,85.7,0,1,1,0,0,-0.735127,3650,1,C
'University of the Basque Country',1,1,1,1,1,1,0,0,0,0,0,1,7,0,0,1,0,0,1,0,1,1,1,0,0,1,0,1,1,0,1,1,1,1,0,0,0,1,1,1,0,0,0,1,0,1,0,19.95,0,1,1,0,0,1,0,75,1,0,1,0,1,0,84.6,0,1,1,0,0,0.402621,3650,1,C
'Politehnica University of Bucharest',1,1,1,1,1,0,0,0,0,0,0,0,0,0,0,1,0,0,0,1,1,1,0,0,1,1,0,1,1,1,1,1,1,0,0,1,1,0,1,0,0,0,0,0,1,1,0,3.09,0,1,1,0,0,0,1,90,1,0,1,0,1,1,55.6,0,1,0,0,0,0.477142,3650,1,C
'University of Rhode Island',1,1,1,1,0,0,0,1,0,0,0,0,0,0,0,1,0,1,1,0,1,1,0,1,1,1,1,1,1,0,1,1,1,0,1,0,1,0,0,0,0,0,0,0,1,1,1,20.12,0,1,1,0,0,0,0,90,1,0,1,1,1,1,42.1,0,1,1,0,0,-0.312233,3650,1,C
'Taipei Medical University',1,1,5,1,0,0,1,1,0,0,1,0,0,0,0,1,0,1,1,1,1,1,0,0,0,1,0,1,1,1,1,1,0,0,0,0,1,0,1,1,0,0,0,1,0,0,0,15.43,0,1,1,0,0,1,0,55,1,0,0,1,0,0,100,0,1,0,0,0,-0.438963,3650,1,C
'VIA University College',1,1,6,0,1,0,0,1,0,0,0,1,5,0,0,1,0,0,1,0,1,1,1,0,0,1,0,0,0,0,1,1,1,0,1,1,1,0,1,1,0,0,0,0,0,1,1,12.08,0,1,0,1,0,1,0,75,1,0,1,1,1,0,85.7,0,1,0,0,0,0.0714003,3650,1,C
'Tallinn University of Technology',1,1,6,0,1,0,0,0,0,0,0,1,10,0,1,0,0,1,0,9,1,1,1,0,0,1,0,0,1,0,0,1,1,0,0,0,0,1,0,0,0,0,1,0,1,1,1,15.91,0,1,1,0,0,1,0,100,1,0,1,1,1,1,71.9,0,1,0,0,0,-1.00664,0,0,C
'University of Sassari',1,1,5,1,1,0,0,0,1,0,0,0,0,0,0,1,0,1,0,0,1,1,1,1,0,1,0,1,0,0,0,1,1,0,0,0,1,0,1,0,0,0,1,1,0,1,1,12.63,0,1,1,1,0,0,0,75,1,0,1,1,1,0,100,0,1,1,0,0,2.25363,3650,1,C
'Yokohama National University',1,1,5,1,1,0,0,0,0,0,0,0,0,1,0,1,0,1,0,0,1,1,0,0,1,1,0,1,1,0,1,1,1,0,0,0,1,0,1,0,0,0,0,0,1,1,1,12.63,0,1,1,0,0,0,0,75,1,3,0,1,1,0,5.6,0,0,0,0,1.38629,-0.295086,3650,1,C
'University of Zielona Gora',1,1,20,0,0,0,0,0,0,0,1,1,6,0,0,1,0,0,1,1,1,1,1,0,0,1,0,0,1,1,0,1,1,0,1,0,0,0,1,0,0,0,1,1,0,1,0,21,0,1,1,0,0,0,0,75,1,0,1,0,1,0,60.6,0,1,1,0,0,-0.435377,3650,1,C
'Wuhan University of Technology',1,1,11,1,0,0,0,0,0,0,1,1,10,0,0,1,0,1,1,0,1,0,0,0,0,1,0,1,1,1,1,1,0,0,1,0,0,0,1,0,0,0,1,0,1,0,1,10.7,0,1,0,0,0,0,0,75,0,2,0,1,0,0,15.2,0,1,0,0,1.09861,-0.165858,3650,1,C
'Pontifical Catholic University of Rio Grande do Sul',1,1,6,0,1,0,0,1,0,0,1,0,0,0,1,1,0,0,1,0,0,0,1,1,0,1,0,1,1,0,0,1,1,1,1,0,1,0,1,0,0,0,1,0,1,1,1,5.74,0,1,1,0,0,0,0,90,1,25,1,1,1,1,25,0,1,0,0,3.2581,-0.895304,265,0,C
'Yamaguchi University',1,1,2,1,1,0,0,0,0,0,0,0,0,0,1,1,0,1,0,14,1,1,1,0,1,1,0,1,1,0,1,1,0,0,0,0,1,0,1,0,0,0,0,1,1,1,1,21,0,1,0,0,0,0,0,90,1,2,0,1,0,0,26.9,0,1,1,0,1.09861,0.086579,13,0,C
'Jamia Hamdard',1,1,3,0,0,0,0,0,1,1,0,0,0,1,0,1,0,1,1,1,0,0,0,0,0,1,0,1,1,0,0,1,1,1,0,1,1,0,1,0,0,0,0,1,1,1,0,12.63,0,1,1,0,0,0,0,75,1,5,1,0,0,0,7.7,0,1,0,0,1.79176,4.4101,3650,1,C
'University of Ferrara',1,1,5,1,0,1,0,0,0,0,0,0,0,0,1,1,0,1,0,0,0,0,0,1,0,1,0,0,1,0,0,0,1,0,1,0,0,0,1,0,0,0,0,0,1,1,0,16.88,0,1,1,0,0,0,0,75,1,1,1,0,1,1,50,0,1,1,0,0.693147,-0.601795,343,0,C
'Federal University of Ouro Preto',1,1,7,1,0,1,0,1,0,0,0,0,0,0,1,0,0,0,0,0,1,1,0,0,1,1,0,1,1,0,1,1,1,1,1,0,0,0,1,0,0,0,0,0,0,1,0,1.17,0,1,0,0,0,0,0,75,1,2,0,0,1,1,33.3,0,1,1,0,1.09861,0.815837,403,0,D
'Federal University of Pelotas',0,1,7,1,1,0,0,0,0,0,1,1,5,0,0,1,0,0,0,6,1,1,0,0,0,1,0,1,0,1,1,1,1,0,0,1,0,0,0,0,0,0,0,0,1,1,0,18.1,0,1,0,0,0,0,0,20,1,2,1,0,1,0,12.5,0,0,0,0,1.09861,-0.170513,3650,1,D
'Johannes Gutenberg University Mainz',1,1,5,1,1,0,0,0,0,0,1,0,1,1,0,0,0,0,0,0,0,0,0,0,0,1,0,1,0,1,0,1,1,0,0,0,0,0,1,0,0,0,1,0,1,1,1,12.48,0,1,1,0,0,0,0,75,1,0,1,0,0,1,33.3,0,1,1,0,0,0.831612,3650,1,D
'University of Costa Rica',1,1,5,1,0,0,0,0,1,4,1,1,2,0,1,1,1,0,0,14,1,1,1,1,1,1,0,0,0,0,0,1,0,0,0,1,0,1,1,0,0,0,0,0,1,1,1,21,0,1,0,0,0,0,0,90,1,0,1,1,1,1,82.9,0,1,0,0,0,-0.592233,11,0,D
'L.N. Gumilyov Eurasian National University',1,1,6,0,1,0,1,1,0,0,0,1,10,1,1,1,0,1,1,0,1,1,1,0,1,1,0,1,1,1,0,0,0,0,0,0,1,0,1,0,0,0,1,0,1,1,1,21,0,1,1,0,0,0,0,75,1,0,1,1,0,1,30.8,0,0,1,0,0,0.437548,1,0,D
'Federal University of Santa Maria',1,1,10,1,1,0,0,0,0,0,0,0,0,0,1,0,1,0,0,3,1,1,1,0,1,1,0,0,0,0,0,0,1,0,0,0,0,0,1,1,0,0,0,0,0,1,0,17.04,0,1,1,0,0,0,0,90,1,0,0,1,1,1,77.1,0,1,1,0,0,-0.790821,0,0,D
'Federal University of Rio de Janeiro',1,1,4,1,1,0,1,1,1,1,0,0,0,0,0,0,1,0,0,0,0,0,0,0,0,1,0,0,1,1,0,1,1,0,0,0,0,0,1,0,0,0,1,0,1,0,0,19.89,0,1,1,0,0,0,0,75,1,0,1,0,1,1,85.7,0,1,0,0,0,-0.742296,3650,1,D
'Waseda University',1,1,11,1,1,0,0,0,0,0,0,0,0,0,1,1,0,1,1,1,1,1,1,0,1,1,1,1,1,0,1,1,0,0,0,0,1,0,0,0,0,0,0,0,1,1,1,12.63,0,1,1,0,0,0,0,90,1,0,1,1,1,0,29.5,0,1,0,0,0,0.103234,8,0,D
'University of Maine',1,1,7,0,0,0,0,0,1,1,0,0,0,0,0,1,0,0,0,0,1,1,0,0,1,1,0,0,1,0,1,1,1,1,0,1,1,1,0,0,0,0,0,0,1,1,0,15.13,0,1,1,0,0,0,0,90,1,0,1,0,0,1,83.3,0,1,1,0,0,0.0776489,3650,1,D
'South Valley University',1,1,8,0,1,0,0,0,1,1,0,0,0,1,1,1,0,1,0,0,0,0,0,1,0,1,0,1,1,1,1,0,1,0,0,0,0,0,0,0,0,0,0,0,1,0,0,13.3,0,1,0,0,0,0,0,35,0,4,0,0,1,0,18.8,0,0,0,0,1.60944,1.65423,65,0,D
'University of Antofagasta',1,1,9,1,1,0,0,1,0,0,0,1,2,0,0,0,0,0,0,0,1,1,0,0,0,1,0,0,1,1,1,1,1,0,0,0,1,0,0,0,0,0,0,0,0,0,0,11.98,0,1,1,0,0,0,0,100,1,1,1,0,1,1,7.4,0,1,1,0,0.693147,-0.224508,3650,1,D
'University of Burgos',1,1,8,0,1,1,0,0,0,0,0,0,0,0,0,0,1,0,0,1,1,1,0,0,1,1,0,0,1,0,1,1,1,0,0,0,1,0,1,1,0,0,1,0,0,1,1,14.07,0,1,1,0,0,0,0,75,1,0,1,0,1,0,100,0,1,0,0,0,-0.815504,3650,1,D
'Industrial University of Santander',0,1,9,0,1,0,0,0,0,0,0,0,0,0,0,1,0,1,0,3,0,0,0,0,0,1,0,1,1,0,1,1,1,0,0,0,1,0,0,0,0,0,0,0,0,1,0,12.63,0,1,0,0,0,0,0,90,1,0,1,0,1,1,84.2,0,1,0,0,0,-0.673716,3650,1,D
'Polytechnic University of Madrid',1,1,3,0,0,0,1,1,0,0,0,0,0,0,0,1,0,1,1,0,0,0,0,0,0,1,0,1,0,0,1,1,1,0,0,0,0,1,0,0,0,0,0,0,1,1,1,21,0,1,1,0,0,0,0,75,1,0,1,0,1,0,95.5,0,1,1,0,0,-0.361394,3650,1,D
'University of Puerto Rico',1,1,4,1,1,0,0,0,0,0,0,0,0,0,1,0,0,0,0,2,1,1,0,0,1,1,0,0,0,1,0,0,0,1,0,0,0,1,1,0,0,0,0,0,0,1,0,9.1,0,1,0,0,0,0,0,90,1,1,1,1,0,1,81.5,0,1,0,0,0.693147,-0.287899,4,0,D
'University of Salerno',1,1,20,1,1,1,0,0,1,0,0,0,0,0,0,1,0,0,0,2,1,1,0,0,0,1,0,1,1,0,0,1,1,0,0,0,0,1,1,1,0,0,1,1,0,1,1,1.01,0,1,1,0,0,0,0,75,1,0,1,0,1,0,100,0,1,1,0,0,0.512432,3650,1,D
'Federal University of Rio Grande do Norte',1,1,7,0,0,0,0,0,0,0,0,0,0,0,0,0,0,0,0,0,0,1,0,0,0,1,0,1,0,1,1,1,1,0,0,0,0,0,1,0,0,0,1,0,0,1,0,8.32,0,1,1,0,0,0,0,75,1,0,0,1,1,1,13.3,0,1,0,0,0,0.466484,3650,1,D
'University of Udine',1,1,6,1,1,1,0,1,0,0,0,0,0,0,0,0,0,0,0,0,0,1,0,0,0,1,0,0,0,0,1,1,1,1,0,0,0,0,0,0,0,0,0,0,0,1,0,15.43,0,1,1,0,0,0,0,90,1,0,1,1,0,1,100,0,1,0,0,0,0.265761,3650,1,D
'Kagoshima University',1,1,6,0,0,0,0,0,0,0,0,1,10,1,0,1,0,1,0,0,0,0,0,0,0,1,0,1,1,1,0,1,0,0,0,0,1,1,1,0,0,0,0,0,1,1,1,12.63,0,1,1,0,0,0,0,75,1,0,1,0,0,0,100,0,1,0,0,0,-0.58284,3650,1,D
'Nagasaki University',1,1,7,1,0,0,0,0,0,0,0,0,0,0,1,1,0,1,0,3,1,1,0,0,0,1,0,1,1,0,1,1,0,0,0,0,1,0,0,0,0,0,1,0,1,1,1,21,0,1,1,0,0,0,0,65,1,1,0,0,1,1,0,0,1,0,0,0.693147,-0.232077,1,0,D
'University of Cagliari',1,1,4,0,1,0,0,0,0,0,0,1,5,0,1,1,0,1,0,5,1,1,0,0,0,1,0,1,0,0,1,1,0,0,0,1,1,1,0,0,0,0,1,0,0,1,1,1.3,0,1,1,0,0,0,0,75,1,0,1,0,1,0,100,0,1,0,0,0,0.809798,0,0,D
'University of Brasilia',1,1,7,1,0,1,0,0,0,0,0,0,0,0,0,0,0,0,0,0,1,0,0,0,0,1,0,1,0,1,0,1,1,0,0,0,0,0,0,0,0,0,1,0,1,0,1,11.66,0,1,1,0,0,0,0,75,1,1,1,0,1,0,83.3,0,1,0,0,0.693147,-0.0354564,3650,1,D
'University of the Balearic Islands',0,1,0,1,1,0,0,1,0,0,1,0,0,1,0,0,0,0,0,0,0,0,0,0,1,1,0,1,1,0,0,1,1,0,1,0,0,1,1,1,0,0,1,1,1,1,0,16.1,0,0,0,0,0,0,0,75,1,0,1,1,1,0,33.3,0,1,1,0,0,0.157384,3650,1,D
'Josip Juraj Strossmayer University of Osijek',1,1,5,1,1,0,0,0,0,0,0,0,0,0,0,1,0,0,0,1,1,1,0,0,0,1,0,1,1,0,1,0,1,0,0,0,0,0,1,1,0,0,1,0,1,1,0,3.61,0,1,1,0,0,0,0,90,1,0,1,0,1,0,72.7,0,1,1,0,0,0.11475,3650,1,D
'Can Tho University',1,0,0,1,0,0,0,0,0,0,1,0,0,0,1,1,0,1,1,0,1,0,0,0,1,1,0,1,1,0,1,1,1,0,0,0,1,1,1,0,0,0,0,1,0,1,0,5.73,0,1,1,0,0,0,0,75,1,0,1,0,1,1,50,0,1,0,0,0,0.158618,13,0,D
'Beijing Forestry University',1,0,0,1,0,0,0,0,0,0,0,1,10,0,1,1,0,1,1,13,1,1,0,1,1,1,0,1,1,1,1,1,1,0,0,0,1,0,1,0,1,0,0,0,1,0,0,12.63,0,1,0,0,0,0,0,75,0,0,1,0,1,0,1.7,0,0,0,0,0,-0.432141,0,0,D
'Jeonbuk National University',1,0,0,1,0,0,0,0,0,0,1,0,0,1,1,1,1,1,0,0,0,0,1,0,1,1,0,1,1,1,1,1,1,1,1,0,1,0,1,1,0,1,1,1,1,1,1,21,0,1,1,0,0,0,0,55,1,0,0,0,1,1,27.9,0,1,0,0,0,-0.434549,35,0,D
'Saitama University',1,0,0,1,0,0,0,0,1,1,1,0,0,1,0,1,1,1,1,0,0,0,0,0,0,1,0,1,1,1,1,1,1,1,0,0,1,0,1,0,0,0,0,0,1,0,0,19.06,0,1,0,0,0,0,0,90,1,0,1,1,1,1,4.3,0,0,1,0,0,-1.4461,3650,1,D
KAIST,0,0,0,1,0,0,0,0,1,0,0,1,6,1,0,1,1,1,1,0,0,0,0,0,1,1,0,1,1,1,1,1,1,1,1,1,1,0,1,1,1,0,0,0,1,1,0,9,0,1,0,0,0,0,0,55,1,0,0,1,1,1,100,0,1,0,0,0,1.42221,3650,1,D
'Duy Tan University',1,0,0,1,0,0,1,1,1,2,1,0,0,0,1,1,0,1,0,0,1,1,1,1,0,1,0,1,1,0,1,1,1,0,0,0,1,1,1,0,0,0,0,1,1,1,0,15.43,0,1,0,0,0,0,0,100,1,0,1,0,1,1,92.5,0,0,0,0,0,-0.636217,4,0,D
'Southwest Jiaotong University',1,0,0,0,0,0,0,1,0,0,1,0,0,0,0,1,0,1,1,0,0,0,0,1,1,1,0,1,1,1,1,1,1,1,1,0,1,1,0,0,0,0,0,0,1,0,0,21,0,1,0,0,0,0,0,20,1,0,0,1,0,0,0,0,0,0,0,0,0.292462,3650,1,D
'Universiti Brunei Darussalam',1,0,0,1,0,0,0,1,0,0,0,0,0,0,1,1,1,1,1,0,0,0,0,0,1,1,0,1,1,1,1,1,1,1,1,1,1,1,1,1,0,1,1,0,1,1,1,5.33,0,1,1,0,0,0,0,90,1,2,1,1,1,0,21.1,0,1,0,0,1.09861,1.12984,8,0,D
'Central China Normal University',1,0,0,0,0,0,0,0,0,0,0,0,0,0,0,1,0,1,0,0,0,0,0,0,1,1,0,1,1,1,0,1,1,1,1,0,1,0,1,0,0,1,0,0,1,0,0,12.63,0,1,0,0,0,0,0,75,0,0,1,0,0,0,0,0,1,0,0,0,0.117481,3650,1,D
'Tongji University',1,0,0,0,0,0,0,0,0,0,1,1,10,0,1,1,0,0,1,0,1,1,0,1,1,1,0,1,1,1,1,1,1,0,1,0,1,0,0,0,0,0,1,0,1,1,1,21,0,1,0,0,0,0,0,90,1,0,0,0,1,0,0,0,0,1,0,0,-0.551938,4,0,D
'Huazhong University of Science and Technology',1,0,0,1,0,0,0,0,1,1,1,1,3,1,1,1,1,1,1,2,1,1,0,1,0,1,0,1,1,1,1,1,1,1,1,0,1,1,1,0,0,1,0,0,1,1,0,12.63,0,1,0,0,0,0,0,75,0,2,1,0,0,0,1.2,0,0,0,0,1.09861,-0.10004,19,0,D
'University of Oviedo',1,0,0,1,1,0,0,1,0,0,0,0,0,0,1,1,1,0,0,0,1,1,1,0,1,1,0,1,1,1,1,1,1,0,0,0,0,0,1,1,0,0,0,0,1,1,0,21,0,1,1,0,0,0,0,75,1,0,0,1,1,0,100,0,1,0,0,0,-0.072985,6,0,D
'University of Agriculture Faisalabad',1,0,0,1,0,0,0,0,1,1,1,0,0,1,1,1,0,1,1,0,0,0,1,1,0,1,0,1,1,1,1,1,1,1,1,1,1,0,0,1,0,0,1,0,1,1,1,4.87,0,1,1,0,0,0,0,75,1,1,1,0,1,0,12.5,0,1,0,0,0.693147,-0.762853,3,0,D
'GIK Institute of Engineering Sciences and Technology',1,0,0,1,0,0,0,0,1,1,1,0,0,1,1,1,1,1,1,1,0,0,0,1,0,1,0,1,1,1,1,1,1,1,1,1,1,1,1,0,0,1,0,0,1,1,1,8.32,0,1,1,0,0,0,0,90,1,2,1,1,1,0,3.4,0,1,0,0,1.09861,0.442436,12,0,D
'Bahria University',1,0,0,0,0,0,0,1,0,0,0,1,4,1,0,1,1,1,1,4,1,1,1,1,1,1,0,1,1,0,1,1,1,1,1,1,1,1,1,1,0,0,0,0,1,1,0,15.43,0,1,0,0,0,0,0,75,1,0,1,0,0,0,65.5,0,1,1,0,0,-0.934106,3650,1,D
'University of Management and Technology',1,0,0,1,0,0,0,1,1,1,1,1,2,1,0,1,0,1,1,7,1,1,0,0,0,1,0,1,1,1,1,1,1,1,0,1,1,0,1,0,1,1,0,0,1,1,1,1.49,0,1,0,1,0,0,1,75,1,0,1,0,1,0,7.4,0,1,1,0,0,-0.792997,3650,1,D
'University of Engineering and Technology Taxila',1,0,0,0,0,0,0,0,1,0,0,0,0,1,0,1,1,1,1,0,0,0,1,1,1,1,0,1,1,1,1,1,1,1,1,0,1,1,1,1,1,1,0,0,1,1,0,4.81,0,1,1,0,0,0,0,75,1,2,1,0,0,1,90.8,0,1,0,0,1.09861,0.335708,3650,1,D
'Bangladesh Agricultural University',1,0,0,1,0,0,0,1,0,0,1,0,1,1,1,1,0,1,1,6,1,1,1,1,1,1,0,1,1,1,1,1,1,1,1,1,0,0,1,1,0,0,0,0,1,0,0,18.45,0,1,1,0,0,1,0,90,1,1,1,1,1,1,6.4,0,1,0,0,0.693147,-0.900214,3,0,D
'Islamic University of Technology',1,0,0,0,0,0,1,1,0,0,1,0,1,1,1,1,1,1,1,0,0,0,0,1,1,1,0,1,1,1,1,1,1,1,1,1,1,0,1,1,0,0,0,0,1,1,0,12.63,0,1,1,0,0,1,0,75,1,5,1,0,1,1,0,0,0,0,0,1.79176,-1.03969,37,0,D
'East West University',1,0,0,1,1,0,0,0,0,0,1,1,10,1,1,1,1,1,1,14,1,1,1,1,0,1,0,1,1,1,1,1,1,1,1,1,1,1,1,1,0,0,0,0,1,1,0,13.57,0,1,1,0,0,1,0,75,1,0,1,1,1,0,56.9,0,1,0,0,0,0.314526,0,0,D
'Tezpur University',1,0,0,1,0,0,0,0,1,1,1,0,0,1,1,1,1,1,0,0,1,0,1,1,0,1,0,1,1,1,1,1,1,1,1,1,1,0,1,1,1,0,0,1,1,1,0,16.97,0,1,0,0,0,0,0,20,1,3,0,1,1,1,48.9,0,0,1,0,1.38629,-0.699305,0,0,D
'All India Institute of Medical Sciences Delhi',1,0,0,1,0,0,0,0,1,1,1,0,0,1,1,1,0,1,1,0,0,0,1,0,1,1,0,1,1,1,1,1,1,0,1,0,1,1,1,1,0,0,0,0,1,1,0,10.86,0,1,1,0,0,0,0,20,1,0,1,0,0,0,22,0,0,1,0,0,-0.468904,314,0,D
'University of Calicut',0,0,0,1,0,0,0,1,1,1,1,0,0,1,1,1,0,1,1,0,0,0,0,1,0,1,0,1,1,1,1,1,1,1,1,1,1,1,1,0,0,1,0,0,1,1,0,12.63,0,1,0,0,0,0,0,75,1,0,1,1,1,0,73.2,0,1,0,0,0,-0.643253,0,0,D
'Nelson Mandela University',1,0,0,1,0,0,0,0,0,0,0,0,0,0,1,1,1,1,1,0,1,1,0,0,0,1,0,1,1,1,1,1,1,1,1,1,1,1,1,1,1,0,0,0,1,1,0,15.43,0,1,0,0,0,0,1,75,1,0,1,1,1,0,0,0,0,0,0,0,1.2419,0,0,D
'University of Lodz',1,0,0,1,1,0,0,0,0,0,1,0,0,0,0,1,1,1,1,0,1,1,0,1,1,1,0,1,1,1,1,1,1,1,1,0,0,1,1,0,0,1,0,1,0,1,1,19.34,0,1,0,0,0,0,0,75,1,4,1,0,0,0,100,0,1,1,0,1.60944,0.146994,3650,1,D
'Mansoura University',1,0,0,1,1,0,0,1,1,1,1,0,0,0,1,1,1,1,1,0,0,0,0,1,1,1,0,1,1,1,1,1,1,0,1,0,1,0,1,0,0,0,0,1,0,1,1,12.63,0,1,1,0,0,0,0,75,1,0,1,1,1,1,50.6,0,1,1,0,0,-0.616636,5,0,D
'University of Silesia in Katowice',1,0,0,1,1,0,0,1,0,0,1,0,0,1,1,1,0,1,1,0,0,0,0,1,0,1,0,1,1,1,1,1,1,0,1,0,0,0,1,0,0,0,1,1,1,1,1,13.65,0,1,1,0,0,0,0,90,1,0,1,1,1,0,100,0,1,1,0,0,1.29436,71,0,D
'Silesian University of Technology',1,0,0,1,1,0,0,1,1,0,1,1,10,1,1,1,0,1,1,20,1,1,1,1,0,1,0,1,1,1,1,1,1,1,0,0,0,1,1,0,0,0,1,0,1,1,1,15.43,0,1,1,0,0,0,0,90,1,0,1,1,1,0,60.1,0,1,1,0,0,-0.217906,1,0,D
'Vrije Universiteit Amsterdam',1,0,0,0,1,0,0,1,0,0,1,0,0,0,1,1,1,1,1,0,1,1,0,0,0,1,0,1,1,1,1,1,1,0,1,1,1,1,1,1,1,0,0,0,1,0,0,11.04,0,1,0,0,0,0,0,75,1,0,0,1,1,0,0,0,1,1,0,0,0.892235,0,0,D
'NIT Karnataka Surathkal',1,0,0,1,0,0,1,1,1,1,1,1,10,1,1,1,1,1,1,20,1,1,1,1,0,1,1,1,1,1,1,1,1,1,1,1,1,1,1,1,1,0,1,0,1,1,1,14.55,0,1,1,0,0,1,0,75,1,0,1,0,1,1,29.6,0,1,1,0,0,-0.799678,0,0,D
'Cochin University of Science and Technology',1,0,0,0,0,0,0,1,1,1,1,1,10,0,1,1,0,1,1,16,1,1,1,0,1,1,0,1,1,1,1,1,1,1,1,1,1,1,1,1,0,0,0,0,1,1,0,12.63,0,1,0,1,0,0,0,75,1,0,1,1,1,0,19.5,0,1,0,0,0,-0.794953,0,0,D
'Osmania University',1,0,0,1,0,0,0,1,1,2,1,1,10,1,1,1,1,1,1,9,1,1,1,0,1,1,0,1,1,1,1,1,1,1,1,1,1,1,1,1,1,0,0,0,1,1,1,9.74,0,1,1,1,0,0,0,75,1,0,0,0,0,0,20,0,1,1,0,0,0.4659,0,0,D
'O.P. Jindal Global University',1,0,0,1,0,0,0,1,1,1,1,1,10,0,0,1,1,1,1,0,1,1,0,0,1,1,0,1,1,1,1,1,1,1,1,1,1,0,1,0,0,0,1,0,1,1,1,12.63,0,1,1,1,0,0,0,75,1,0,1,1,1,1,98.2,0,1,0,0,0,0.0508841,3650,1,D
'Amrita Vishwa Vidyapeetham',1,0,0,1,0,0,0,1,1,3,1,1,10,0,1,1,1,1,1,14,1,1,0,1,1,1,0,1,1,1,1,1,1,1,0,1,1,1,1,0,0,0,0,0,1,1,1,21,0,1,1,0,0,0,0,75,1,0,1,1,1,1,96,0,1,1,0,0,0.127141,0,0,D
'University of Calcutta',1,0,0,0,0,0,0,1,1,1,1,1,6,1,0,1,1,1,1,1,1,1,1,1,0,1,0,1,1,1,1,1,1,1,1,0,0,0,1,0,0,0,1,0,1,1,1,19.11,0,1,1,0,0,0,0,75,1,1,0,0,1,0,1.2,0,1,0,0,0.693147,-0.717392,3650,1,D
'Birla Institute of Technology and Science Pilani',1,0,0,1,0,0,0,1,1,1,1,1,9,1,1,1,1,1,1,0,0,0,1,0,0,1,0,1,1,1,1,1,1,1,1,1,1,1,1,0,1,0,1,0,1,1,1,15.43,0,1,1,0,1,0,0,90,1,2,1,1,1,1,50.5,0,1,0,0,1.09861,0.0279092,359,0,D
'Dongguk University',1,0,0,1,0,0,0,1,0,0,1,1,3,0,1,1,1,1,1,0,1,1,1,1,1,1,0,1,1,1,1,1,1,1,1,1,1,1,1,1,0,0,0,1,1,1,0,21,0,1,0,0,0,1,0,75,1,3,1,1,1,1,24.4,0,1,0,0,1.38629,-0.233683,221,0,D
'Universitas Negeri Yogyakarta',1,0,0,1,0,0,0,0,1,1,1,1,4,0,1,1,0,1,1,2,1,1,0,0,1,1,0,1,1,1,1,1,1,0,0,0,0,0,0,0,0,0,0,0,1,1,0,4.54,0,1,1,0,0,0,0,75,1,0,1,0,1,1,60,0,1,0,0,0,0.416874,8,0,D
'Indian Institute of Technology Roorkee',1,0,0,0,0,0,0,1,0,0,1,1,8,1,1,1,1,1,1,0,1,0,1,1,1,1,0,1,1,1,1,1,1,1,1,1,1,1,1,1,0,0,0,1,1,1,0,21,0,1,0,0,0,1,0,75,1,0,1,1,0,0,65.3,0,0,1,0,0,0.0991153,42,0,D
'Savitribai Phule Pune University',1,0,0,1,0,0,0,1,0,0,1,0,1,1,0,1,1,1,1,0,0,0,1,0,0,1,0,1,1,1,1,1,0,1,1,0,1,1,1,1,0,0,0,1,1,0,0,1.38,0,0,0,0,0,0,0,0,1,2,1,1,1,1,63.6,0,1,0,0,1.09861,-0.820372,3650,1,D
'Taylor\'s University',1,0,0,1,0,0,1,1,1,1,1,0,0,0,0,1,0,0,0,0,1,1,0,1,1,1,0,0,1,0,1,1,1,1,1,1,1,1,1,0,0,0,0,0,1,1,0,16.3,0,1,1,1,0,0,0,75,1,0,1,1,1,1,96.2,0,1,0,0,0,-0.27201,3650,1,D
'Multimedia University',1,0,0,1,0,0,0,0,1,0,1,0,0,1,0,1,1,1,1,0,0,0,0,1,0,1,0,1,1,1,1,1,1,1,1,0,1,0,1,0,0,1,1,1,1,1,1,12.63,0,1,1,1,0,1,0,90,1,0,1,1,1,1,40.8,0,1,0,0,0,-0.50739,3650,1,D
'Universiti Teknologi MARA',1,0,0,1,1,0,1,1,1,1,1,1,7,0,1,1,1,1,0,0,1,1,0,1,0,1,0,1,1,1,1,1,1,0,1,1,1,1,1,0,0,1,1,1,1,1,1,2.85,0,1,1,0,0,0,0,90,1,1,0,1,1,0,93.8,0,1,1,0,0.693147,-0.297494,0,0,D
'King Mongkut\'s University of Technology Thonburi',1,0,0,1,1,0,0,0,0,0,1,0,0,1,1,1,1,1,0,1,1,1,0,0,1,1,0,1,1,1,1,1,1,1,1,0,1,0,1,0,0,0,1,1,1,1,1,11.49,0,1,1,0,0,0,0,75,1,0,1,1,1,1,24.1,0,1,0,0,0,-0.307327,188,0,D
'University of the Free State',1,0,0,1,0,0,0,0,0,0,0,0,0,1,0,1,1,1,0,0,1,0,0,0,0,1,0,0,1,1,1,1,1,1,1,1,1,0,1,0,0,0,0,0,1,1,1,12.63,0,1,0,0,0,0,0,75,1,0,0,1,1,0,66.7,0,1,0,0,0,0.820465,3650,1,D
'Rhodes University',1,0,0,1,0,0,0,0,0,0,0,0,0,0,0,1,1,1,0,0,0,0,0,0,0,1,0,1,1,1,1,1,1,1,1,1,1,1,0,1,0,0,1,0,1,1,1,5.33,0,0,1,0,0,0,0,75,1,2,1,1,0,1,50,0,1,0,0,1.09861,-0.691948,3650,1,D
'Nankai University',1,0,0,1,1,0,0,0,0,0,1,1,10,0,1,1,0,1,1,3,1,0,0,1,1,1,0,1,1,1,1,1,1,1,1,1,1,0,1,0,0,0,0,0,1,1,0,21,0,1,0,0,0,0,0,75,1,2,1,0,0,0,0,0,0,0,0,1.09861,-0.141979,35,0,D
'Tianjin University',1,0,0,1,1,0,0,0,1,1,1,1,10,1,1,1,1,1,1,0,0,0,0,1,1,1,0,1,1,1,1,1,1,1,1,1,1,1,1,0,0,0,0,0,1,1,0,21,0,1,0,0,0,0,0,75,0,2,1,1,0,0,0.6,0,1,0,0,1.09861,0.00751692,1,0,D
'Mapua University',1,0,0,0,0,0,1,1,1,1,1,1,9,1,1,1,1,1,1,5,1,1,0,1,1,1,0,1,1,1,1,1,1,1,1,1,1,1,1,0,1,0,1,1,1,1,1,17.93,0,1,1,1,0,1,1,75,1,0,1,1,1,1,97.3,0,1,0,0,0,-0.545516,161,0,D
'University of the East',1,0,0,1,0,0,0,1,1,1,1,1,2,1,1,1,1,1,0,0,0,0,0,1,1,1,0,1,1,1,1,1,1,1,1,1,1,0,1,0,1,1,1,0,1,1,1,13.2,0,1,1,1,0,1,0,75,1,0,0,1,1,1,1.1,0,1,0,0,0,1.88193,19,0,D
'University of Constantine 1',1,0,0,0,1,0,0,0,0,0,0,0,0,0,1,1,0,1,0,0,0,0,0,0,0,1,0,0,0,1,0,1,1,0,0,1,0,0,1,1,0,0,0,0,1,1,0,1.66,0,1,0,0,0,0,0,75,1,0,1,1,1,1,61.1,0,1,0,0,0,2.93467,0,0,D
'Tsinghua University',1,0,0,1,0,0,0,0,0,0,0,1,3,0,0,1,1,1,1,1,1,1,0,0,1,1,0,1,1,1,1,1,1,0,0,0,1,0,1,0,0,0,0,0,1,1,0,21,0,1,0,0,0,0,1,75,1,0,1,0,0,0,0,0,0,0,0,0,0.141762,3650,1,D
'University of L\'Aquila',1,0,0,1,0,0,0,1,1,0,1,1,8,1,0,1,1,1,1,0,0,0,0,1,0,1,0,0,1,1,1,1,1,1,1,0,1,1,1,1,0,0,0,1,1,1,0,19.65,0,1,0,0,0,0,0,75,1,0,1,0,0,0,100,0,1,1,0,0,0.326668,3650,1,D
'Peking University',0,0,0,1,0,0,0,0,1,1,1,0,1,0,1,1,0,1,1,0,0,0,0,0,0,1,0,1,1,1,1,1,1,0,1,1,1,0,1,0,0,0,0,0,1,1,0,12.63,0,1,0,0,0,0,0,75,1,0,1,1,1,0,0,0,0,0,0,0,-0.00271701,15,0,D
'Shanghai Jiao Tong University',1,0,0,1,1,0,0,1,0,0,1,1,10,1,1,1,0,1,1,2,1,0,0,1,1,1,0,1,1,1,1,1,1,1,0,1,1,1,1,0,0,0,1,0,1,1,1,17.4,0,1,1,0,0,0,0,75,1,0,1,0,1,1,0,0,1,1,0,0,2.15203,6,0,D
'Zhejiang University',1,0,0,0,0,0,0,0,0,0,1,1,10,0,1,1,1,1,1,3,1,0,0,1,0,1,0,1,1,1,1,1,1,0,0,0,1,0,1,0,0,0,0,0,1,1,1,10.16,0,1,1,0,0,0,0,75,1,0,1,0,0,0,20,0,1,0,0,0,-0.346657,18,0,D
'University of Zilina',1,0,0,0,1,0,0,1,1,1,1,1,10,1,1,1,0,1,1,0,0,0,1,0,1,1,0,0,1,1,1,1,1,1,1,1,1,1,1,1,0,0,0,0,1,1,0,15.43,0,1,1,0,0,0,0,90,1,1129,0,1,1,0,91.7,0,1,1,0,7.02997,4.86418,39,0,D
'Pennsylvania State University',1,0,0,0,0,0,1,1,0,0,1,0,0,0,0,1,1,1,0,0,0,0,0,0,1,0,0,1,1,1,1,1,1,1,1,1,1,1,1,0,0,1,0,0,1,1,0,21,0,0,0,0,0,0,0,90,1,1,1,1,1,1,90,0,1,1,0,0.693147,-0.390333,3650,1,D
'Maldives National University',1,0,0,1,0,0,0,0,1,1,1,0,1,1,1,1,1,1,1,0,0,0,1,1,0,1,0,1,1,1,1,1,1,1,1,1,1,1,1,0,0,1,1,0,1,1,1,7.19,0,1,1,1,0,0,0,75,1,1,1,0,1,1,0,0,1,0,0,0.693147,2.39205,0,0,D
'Comenius University Bratislava',1,0,0,1,0,0,1,1,0,0,1,0,1,0,1,1,0,0,0,0,1,1,0,1,0,1,0,1,1,1,1,1,1,0,0,0,0,0,1,1,0,0,1,1,1,1,1,21,0,1,1,0,0,0,0,75,1,0,1,1,1,0,36.8,0,1,0,0,0,0.247848,49,0,D
'University of Szeged',1,0,0,1,0,0,0,1,1,0,1,1,6,0,1,1,1,1,0,0,1,1,0,0,0,1,0,1,1,1,1,1,1,1,1,0,1,1,1,0,1,0,0,0,1,1,0,14.31,0,1,0,0,0,1,0,75,1,0,1,1,1,0,100,0,1,1,0,0,1.33144,40,0,D
'Meiji University',1,0,0,1,0,0,0,0,1,1,1,1,2,0,1,1,1,1,1,1,1,1,0,0,0,1,0,1,1,1,1,1,1,1,0,1,1,0,1,0,0,0,0,1,1,1,0,21,0,1,1,0,0,0,0,75,1,0,0,1,1,0,11.8,0,1,0,0,0,-0.107063,4,0,D
'Sun Yat-sen University',1,0,0,1,0,0,0,1,0,0,1,1,10,0,1,1,0,1,0,0,0,0,0,1,1,1,0,1,1,1,1,1,1,1,1,1,1,1,0,0,0,0,1,0,1,1,1,12.63,0,1,1,0,0,0,0,75,1,1,1,0,1,0,0,0,1,0,0,0.693147,0.700013,4,0,D
'Wuhan University',1,0,0,1,0,0,0,0,0,0,0,1,4,1,1,1,0,1,1,6,1,1,0,1,0,1,0,1,1,1,1,1,0,0,1,0,1,1,1,0,0,0,0,0,1,1,1,15.43,0,1,1,0,0,0,0,75,1,0,1,0,0,0,5.1,0,1,0,0,0,0.555333,4,0,D
'University of Nigeria Nsukka',1,0,0,1,0,1,0,0,1,1,1,1,10,1,1,1,1,1,1,5,1,1,0,1,0,1,0,1,1,1,1,1,1,1,1,1,1,1,1,0,0,0,0,1,1,1,0,8.86,0,1,0,0,0,0,0,90,1,0,1,1,1,1,54.7,0,1,0,0,0,-1.1117,0,0,D
'Covenant University',1,0,0,0,0,0,0,1,1,1,0,1,9,1,1,1,0,1,1,0,1,0,0,0,1,1,0,1,1,1,1,1,1,1,1,1,1,1,1,1,0,0,0,0,1,1,0,19.95,0,1,1,0,0,0,0,90,1,0,1,1,1,1,71.8,0,1,0,0,0,-0.347784,29,0,D
'Sungkyunkwan University',1,0,0,1,0,0,1,1,0,0,1,1,10,1,0,1,1,1,1,0,1,1,0,1,0,1,0,1,1,1,1,1,1,1,1,0,1,0,1,1,1,0,0,0,1,1,0,12.63,0,1,0,0,0,0,1,75,1,0,1,1,1,1,88.7,0,1,0,0,0,1.30883,3650,1,D
'Macquarie University',0,0,0,0,0,0,0,0,0,0,0,0,0,0,0,1,0,1,1,0,0,0,0,0,0,1,0,0,1,0,1,1,1,1,1,0,1,0,1,0,0,1,0,0,0,0,0,11.53,0,1,0,0,0,0,0,75,1,0,1,1,1,1,60,0,1,0,0,0,0.221322,3650,1,D
'Shandong University',1,0,0,1,0,0,0,0,0,0,1,1,8,0,1,1,0,1,1,0,0,0,0,0,0,1,0,1,1,1,1,1,1,0,1,0,1,0,1,1,0,0,0,0,1,0,0,21,0,1,0,0,0,0,0,75,1,0,1,0,0,0,0,0,0,0,0,0,0.100224,7,0,D
'Central South University',1,0,0,1,0,0,0,0,0,0,1,1,3,1,1,1,0,1,1,1,1,1,0,1,0,1,0,1,1,1,1,1,1,1,1,0,1,0,1,1,0,0,0,0,1,1,0,21,0,1,0,0,0,0,0,0,1,0,1,0,0,0,2.4,0,0,0,0,0,-0.0408434,291,0,D
'Xiamen University',1,0,0,1,0,0,0,0,0,0,1,1,4,0,1,1,0,1,1,2,1,1,0,0,1,1,0,1,1,1,1,1,1,1,1,0,0,0,0,0,0,0,0,0,1,1,0,21,0,1,0,0,0,0,0,75,1,0,1,0,0,0,0,0,0,0,0,0,0.631385,4,0,D
'Southeast University',1,0,0,1,0,0,0,0,0,0,1,1,6,0,1,1,0,1,1,0,1,0,0,1,1,1,0,1,1,1,1,1,1,1,1,0,1,0,1,0,0,0,0,0,1,1,0,15.72,0,1,0,0,0,1,0,75,1,0,1,1,1,0,0,0,0,0,0,0,-0.146995,4,0,D
'Case Western Reserve University',1,0,0,0,0,0,0,1,0,0,1,1,10,1,0,1,0,1,1,7,0,0,0,0,1,1,0,0,1,1,1,1,1,1,1,1,1,0,1,1,0,0,1,0,1,1,1,21,0,1,1,0,0,0,0,100,1,0,0,1,1,1,59.4,0,1,0,0,0,0.44495,3650,1,D
'Kenyatta University',1,0,0,1,0,0,0,1,1,0,0,0,0,1,1,1,0,1,1,1,0,0,0,0,1,1,0,1,1,1,1,1,1,0,1,1,1,0,1,1,0,0,1,0,1,1,1,5.33,0,1,1,0,0,0,0,90,1,0,0,1,1,1,18.8,0,1,0,0,0,1.62281,6,0,D
'University of Birmingham',1,0,0,1,0,0,0,0,0,0,0,0,1,0,1,1,0,0,1,0,1,1,0,0,0,1,0,0,1,1,1,1,1,0,0,1,1,0,1,1,0,0,1,0,1,1,1,21,0,1,1,0,0,0,1,90,1,0,1,1,1,0,38.1,0,1,1,0,0,-1.38816,1,0,D
'Yunnan University',1,0,0,1,0,0,0,0,0,0,0,0,0,0,1,1,0,1,1,0,1,1,0,1,0,1,0,1,1,1,1,1,1,1,0,1,1,0,1,0,0,0,0,0,1,0,0,21,0,1,0,0,0,0,0,75,0,0,1,1,0,0,77.3,0,0,0,0,0,1.00021,11,0,D
'University of Peradeniya',1,0,0,0,1,0,0,1,1,1,1,1,10,1,1,1,0,1,1,2,0,0,0,1,1,1,0,1,1,0,1,1,1,1,1,1,1,1,1,1,0,0,1,0,1,1,1,21,0,0,0,0,0,0,0,75,1,0,1,0,1,1,97.1,0,1,0,0,0,3.84468,5,0,D
'University of Sri Jayewardenepura',1,0,0,1,0,0,0,1,0,0,1,1,2,1,0,1,0,1,1,10,0,0,0,1,0,1,0,1,1,1,1,1,1,0,1,1,1,0,1,1,0,0,1,0,1,1,1,7.57,0,1,1,0,0,0,0,90,1,0,0,1,1,1,24.1,0,1,0,0,0,-0.410896,3650,1,D
'University of Ruhuna',1,0,0,1,0,0,0,1,0,0,1,1,10,0,1,1,1,1,0,0,0,0,0,0,1,1,1,1,1,1,1,1,1,0,1,1,0,1,1,0,0,0,0,0,1,1,0,12.63,0,1,1,0,0,0,1,90,1,0,1,1,1,0,84.6,0,1,0,0,0,-0.477866,228,0,D
'Hellenic Mediterranean University',1,0,0,1,1,0,0,0,0,0,0,1,8,1,1,1,1,1,1,3,1,1,1,0,1,1,0,1,1,1,1,1,1,0,1,1,1,1,1,1,0,0,1,0,1,1,1,5.74,0,1,1,0,0,1,0,90,1,0,1,1,1,0,51.9,0,1,1,0,0,1.14514,26,0,D
'Beijing Jiaotong University',1,0,0,0,0,0,0,0,0,0,1,0,1,0,0,1,0,1,1,0,1,1,0,0,0,1,0,1,1,1,1,1,1,0,1,1,1,0,1,0,1,0,0,0,1,0,0,12.82,0,1,0,0,0,0,0,75,0,1,0,0,1,0,0,0,0,0,0,0.693147,-0.229268,3650,1,D
'University of Guanajuato',1,0,0,1,0,0,0,0,1,1,0,0,0,0,0,0,1,1,0,0,0,0,0,0,0,0,0,1,0,1,1,1,1,1,1,0,0,0,0,0,0,0,0,0,0,1,0,12.63,0,0,0,0,0,0,0,75,1,2,0,1,1,1,90,0,1,0,0,1.09861,1.0241,3650,1,D
'Ocean University of China',1,0,0,0,0,0,0,1,0,0,1,1,10,1,1,1,0,1,1,0,1,0,0,0,1,1,0,1,1,1,1,1,1,0,1,0,1,0,1,0,0,0,0,0,1,0,0,21,0,1,0,0,0,0,0,75,0,2,1,1,1,0,0,0,0,0,0,1.09861,0.147381,82,0,D
'Kyushu University',1,0,0,1,1,0,0,0,0,0,1,1,8,1,1,1,1,1,1,4,1,1,1,0,0,1,0,1,1,1,1,1,1,1,1,1,1,0,1,0,0,0,1,1,1,1,1,12.63,0,1,1,0,0,0,0,75,1,0,1,1,1,0,30,0,1,0,0,0,0.361089,4,0,D
'University of Calgary',1,0,0,1,0,0,0,1,0,0,0,1,10,0,1,1,1,1,1,20,1,1,0,0,1,1,0,1,1,1,1,1,1,1,1,1,1,1,1,1,0,1,0,0,1,1,1,10.86,0,1,1,0,0,0,1,100,1,0,1,1,1,1,72.7,0,1,0,0,0,0.256638,0,0,D
'Swinburne University of Technology',1,0,0,1,0,0,0,1,1,1,1,0,0,0,1,1,0,1,1,0,1,1,0,0,0,1,0,1,1,1,1,1,1,1,1,1,1,1,1,1,0,1,0,0,1,1,1,11.98,0,1,1,1,0,1,1,100,1,0,1,1,0,1,65.2,0,1,1,0,0,-0.150676,95,0,D
'Western Sydney University',1,0,0,1,0,0,0,0,0,0,1,0,0,0,1,1,1,1,1,16,1,1,0,0,1,1,0,1,1,1,1,1,1,1,1,1,1,1,1,0,0,0,1,0,1,1,1,15.72,0,1,1,0,0,0,1,75,1,1,0,1,1,1,88.8,0,1,1,0,0.693147,0.443577,1,0,D
'Griffith University',0,0,0,1,0,1,1,1,0,0,1,1,3,0,1,1,0,0,1,2,1,1,0,1,0,1,0,0,1,1,1,1,1,1,1,0,1,1,1,0,0,0,0,0,1,1,1,21,0,1,0,0,0,0,0,75,1,0,1,1,1,1,0,0,1,0,0,0,0.298069,0,0,D
'University College London',1,0,0,1,0,0,1,1,0,0,1,0,0,0,1,1,0,1,1,0,1,1,0,1,0,1,0,1,1,1,1,1,1,1,1,1,1,1,1,1,0,0,1,0,1,1,1,17.4,0,1,1,0,0,1,0,100,1,0,1,1,1,1,100,0,1,1,0,0,-1.34548,0,0,D
'University of Windsor',1,0,0,1,0,0,1,1,0,0,1,0,0,0,0,1,0,0,1,0,1,0,0,0,0,1,0,0,1,1,1,1,1,0,1,0,1,0,1,0,0,0,0,0,0,1,1,12.63,0,1,0,0,0,0,0,75,1,0,1,0,1,1,65,0,1,1,0,0,1.551,3650,1,D
'University of Louisville',1,0,0,1,0,0,0,0,1,1,0,1,5,0,1,1,1,1,1,13,1,1,0,0,0,1,0,1,1,1,1,1,1,1,1,1,1,1,1,0,0,1,1,0,1,1,1,12.63,0,1,1,0,0,0,0,100,1,0,1,0,1,1,76.9,0,1,1,0,0,0.859277,22,0,D
'Montana State University',1,0,0,1,0,1,0,0,0,0,1,0,0,0,0,1,1,1,1,1,1,1,0,1,0,1,0,1,1,1,1,1,1,1,1,1,1,1,1,0,0,0,0,0,0,1,1,12.63,0,1,1,0,0,0,0,75,1,0,1,1,1,1,92.1,0,1,1,0,0,-0.602055,3650,1,D
'Pontifical Catholic University of Chile',1,0,0,1,1,0,0,0,1,1,0,1,4,0,0,1,1,1,0,0,1,1,0,0,0,1,0,1,1,1,1,1,1,0,1,0,1,1,1,1,0,0,1,1,0,1,1,15.43,0,1,0,0,0,1,0,100,1,0,1,1,1,1,70.4,0,1,0,0,0,-0.145409,3650,1,D
'Colorado State University',1,0,0,1,0,0,0,0,0,0,1,1,3,0,0,1,1,1,1,10,1,1,0,1,1,1,0,1,1,1,1,1,1,1,1,1,1,0,1,0,0,0,0,0,1,1,1,21,0,1,0,0,0,0,0,90,1,0,1,1,1,1,89.7,0,1,1,0,0,-0.241797,3650,1,D
'Newcastle University',1,0,0,1,0,0,0,1,0,0,1,1,10,0,1,1,1,1,1,0,1,1,1,1,0,1,0,1,1,1,1,1,1,1,1,1,1,1,1,1,1,1,1,0,1,1,1,8.59,0,1,1,1,0,1,1,75,1,0,1,1,0,1,98.5,0,1,1,0,0,-0.0993138,1,0,D
'University of Bucharest',1,0,0,1,1,0,0,0,0,0,1,0,0,1,1,1,1,1,0,0,0,1,1,1,0,1,0,1,1,1,1,1,1,1,0,0,0,1,1,0,0,0,1,0,1,1,1,14.72,0,1,1,0,0,0,0,90,1,0,1,0,1,1,32.7,0,1,1,0,0,1.50001,0,0,D
'Jiangnan University',1,0,0,0,1,0,0,1,0,0,0,1,4,0,0,1,0,1,1,7,0,0,0,0,0,1,0,1,1,1,1,1,1,0,0,0,1,0,1,0,0,0,0,0,0,0,0,21,0,1,0,0,0,0,0,20,1,0,1,0,0,0,13.8,0,0,0,0,0,0.168852,3650,1,D
'Guangxi University',1,0,0,1,0,0,0,0,0,0,1,1,7,0,1,1,1,1,1,0,1,0,0,1,0,1,0,1,1,1,1,1,1,1,1,0,1,0,1,0,0,0,0,0,0,0,0,15.43,0,1,0,0,0,0,0,75,1,0,1,0,0,0,0,0,0,0,0,0,0.494933,21,0,D
'Gheorghe Asachi Technical University of Iasi',1,0,0,1,1,0,0,0,0,0,1,0,0,1,1,1,0,1,1,9,1,0,1,1,0,1,0,1,1,1,1,1,1,1,1,1,1,0,1,0,0,0,0,0,1,1,1,7.49,0,1,1,0,0,0,0,90,1,0,1,0,1,0,62.5,0,1,0,0,0,-0.287232,15,0,D
'Taras Shevchenko National University of Kyiv',1,0,0,0,0,0,0,0,1,1,1,1,5,0,1,1,1,1,0,0,1,1,1,1,0,1,0,1,1,1,1,1,1,0,1,1,0,0,0,0,0,0,0,0,1,1,0,18.59,0,1,0,0,0,0,0,0,1,0,1,0,1,1,50,0,0,0,0,0,0.0208823,1,0,D
'Technological University Dublin',1,0,0,1,1,0,0,0,0,0,1,1,10,1,1,1,1,1,1,0,1,0,0,0,0,1,0,1,1,1,1,1,1,1,1,1,1,1,1,0,0,0,0,1,1,1,0,15.91,0,1,0,1,0,0,0,90,1,0,1,1,1,1,96.8,0,1,1,0,0,-0.745554,1,0,D
'National and Kapodistrian University of Athens',1,0,0,1,0,0,0,1,0,0,0,1,5,1,1,1,1,1,1,12,1,1,1,0,0,1,0,1,1,1,1,1,1,0,1,0,0,0,1,1,0,0,0,1,1,1,1,12.63,0,1,1,0,0,0,0,75,1,0,1,0,1,1,37,0,1,0,0,0,-1.29684,1,0,D
'Technical University of Crete',1,0,0,1,1,1,0,0,0,0,1,0,0,0,1,0,1,1,0,0,1,1,0,0,0,1,0,0,1,1,1,1,0,0,0,0,0,0,1,0,0,0,0,0,1,1,0,12.63,0,1,0,0,0,0,0,75,1,0,1,0,0,0,61.7,0,1,0,0,0,-0.674345,0,0,D
'Jinan University',1,0,0,1,0,0,0,1,0,0,1,1,6,0,1,1,1,1,1,1,1,1,0,1,0,1,0,1,1,1,1,1,1,1,1,0,1,0,1,0,0,0,0,0,1,1,0,12.63,0,1,0,0,0,1,0,75,1,5,1,1,1,0,0,0,1,0,0,1.79176,-0.230071,243,0,D
'Carleton College',1,0,0,1,0,0,0,1,0,0,1,1,10,1,0,1,1,1,1,0,0,0,0,0,0,1,0,1,1,1,1,0,1,1,1,1,1,0,1,0,0,0,1,0,0,0,1,12.63,0,1,0,0,0,0,0,90,1,0,1,1,0,1,100,0,1,1,0,0,-1.13219,3650,1,D
'Graz University of Technology',1,0,0,0,1,0,0,0,0,0,0,0,0,1,0,1,0,0,1,0,1,1,0,0,1,1,0,1,0,1,1,1,1,1,1,1,1,0,1,1,0,0,0,0,0,0,0,21,0,1,0,0,0,0,0,75,1,0,1,1,0,0,100,0,1,1,0,0,1.28847,3650,1,D
'Pontifical Catholic University of Rio de Janeiro',1,0,0,1,0,0,0,1,0,0,0,0,0,0,0,0,0,0,0,0,0,0,0,0,1,1,0,1,1,1,1,1,1,0,1,0,1,0,1,0,0,0,1,0,1,1,1,19.2,0,1,1,0,0,0,0,75,1,4,1,1,1,0,100,0,1,0,0,1.60944,-0.124793,3650,1,D
'Harvey Mudd College',1,0,0,1,0,0,0,1,0,0,1,0,1,0,0,1,1,1,1,15,0,0,0,1,1,0,0,1,1,1,1,1,1,1,0,1,1,1,1,0,0,0,1,0,1,1,1,15.43,0,0,0,0,0,0,1,75,1,0,1,0,1,1,28.6,0,1,1,0,0,0.564897,3650,1,D
'Northwestern Polytechnical University',1,0,0,1,0,0,0,0,0,0,1,0,0,1,0,1,0,1,1,1,1,1,0,0,1,1,0,1,1,1,1,1,1,1,1,0,1,0,1,0,0,0,0,0,1,0,0,20.27,0,1,0,0,0,0,0,55,1,0,1,1,1,0,25,0,0,0,0,0,1.30823,3650,1,D
'East China Normal University',1,0,0,1,0,0,0,0,0,0,1,1,4,0,0,1,0,1,0,5,1,0,0,1,1,1,0,1,1,1,1,1,1,1,0,0,0,0,1,0,0,0,0,0,1,1,0,12.63,0,1,0,0,0,0,0,75,1,0,1,0,1,0,0,0,1,0,0,0,0.0659105,3650,1,D
'Hunan University',1,0,0,1,0,0,0,0,1,1,1,1,10,0,1,1,1,1,1,0,0,0,0,1,0,1,0,1,1,1,1,1,1,1,0,1,1,0,1,0,0,0,0,0,1,1,0,21,0,0,0,0,0,0,0,0,0,0,1,0,1,0,2.2,0,0,0,0,0,2.01357,0,0,D
'Beijing Institute of Technology',1,0,0,1,0,0,0,1,1,0,0,0,0,0,1,1,0,1,0,1,1,1,0,1,0,1,0,1,1,1,1,1,1,1,1,1,1,0,0,0,0,0,0,0,1,1,0,21,0,1,0,0,0,0,0,75,0,0,1,0,0,0,50.8,0,1,0,0,0,0.405436,5,0,D
'University of Dayton',0,0,0,1,0,0,0,1,0,0,0,1,5,0,0,1,1,1,1,0,1,0,0,0,1,1,0,1,1,1,1,0,1,0,1,1,1,1,1,0,0,0,1,0,0,1,1,19.63,0,1,0,0,0,0,0,75,1,0,1,1,1,1,94.7,0,1,0,0,0,0.114731,3650,1,D
'University of St. Gallen',0,0,0,1,1,1,0,1,1,2,1,1,10,0,1,1,1,1,1,14,1,1,1,1,1,1,0,1,1,1,1,1,1,0,1,1,1,1,1,1,1,0,1,0,1,1,1,21,0,1,0,0,0,0,0,100,1,0,1,1,1,1,44,0,1,0,0,0,0.783114,0,0,D
'Marquette University',1,0,0,1,0,0,0,1,0,0,1,1,10,0,0,1,0,1,0,0,1,1,0,1,0,1,0,1,1,1,1,1,1,1,1,1,1,1,1,0,0,0,1,0,1,1,1,15.43,0,1,1,0,0,0,0,75,1,0,1,1,0,1,87,0,1,1,0,0,1.41261,3650,1,D
'Delhi Technological University',1,0,0,1,0,0,0,0,1,1,1,0,0,1,1,1,1,1,1,0,0,0,1,1,0,1,0,1,1,1,1,1,1,1,1,1,1,1,1,0,1,0,0,0,1,1,0,4.67,0,1,0,0,0,1,0,0,1,4,1,1,1,0,53.8,0,0,0,0,1.60944,3.74953,0,0,D
'Bates College',1,0,0,1,0,0,0,0,0,0,1,0,0,1,1,1,1,1,1,0,0,0,0,0,0,1,0,1,1,0,1,1,1,1,1,1,1,0,0,0,0,0,1,0,0,1,1,21,0,0,0,0,0,0,0,75,1,1,1,1,1,1,85.7,0,1,0,0,0.693147,0.00804194,54,0,D
'Indian Institute of Technology Jodhpur',1,0,0,0,0,0,0,1,0,0,1,1,5,1,1,1,0,1,1,7,1,1,1,0,0,1,0,1,1,1,1,1,1,1,1,0,1,1,1,1,0,0,0,1,1,1,0,15.43,0,1,1,0,0,0,0,75,1,0,1,1,1,1,95.7,0,1,0,0,0,0.526189,0,0,D
'IIIT Delhi',1,0,0,1,0,0,0,1,0,0,1,1,4,0,0,1,0,1,1,10,1,1,0,0,1,1,0,1,1,1,1,1,1,1,1,1,1,1,1,1,1,0,0,0,1,1,1,5.83,0,1,1,0,0,0,1,75,1,0,0,0,1,0,4.8,0,1,1,0,0,0.17521,3650,1,D
'University of Malawi',1,0,0,1,0,0,0,1,0,0,1,0,1,1,1,1,0,1,1,0,1,1,0,1,0,1,0,1,1,1,1,1,1,1,1,0,1,1,1,1,0,0,1,0,1,1,1,10.41,0,1,1,0,0,1,0,75,1,1,0,0,1,1,2.3,0,1,0,0,0.693147,-0.581714,1,0,D
'Universiti Teknologi PETRONAS',1,0,0,1,0,0,0,0,1,1,1,1,6,1,0,1,1,1,1,12,0,0,0,1,1,1,0,1,1,1,1,1,1,1,1,1,1,0,1,0,0,0,0,0,1,1,0,9.74,0,1,0,0,0,0,1,75,1,0,1,1,1,1,60,0,1,0,0,0,0.580617,3650,1,D
'University of Lome',1,0,0,1,1,0,0,0,0,0,0,0,1,0,1,1,0,1,1,6,0,0,0,1,0,1,1,1,1,1,0,1,1,1,0,1,1,1,1,1,0,0,0,0,1,1,1,5.33,0,1,1,0,0,0,0,90,1,2,1,0,1,0,10.5,0,1,0,0,1.09861,0.393275,784,0,D
'National Sun Yat-sen University',1,0,0,1,1,0,0,0,1,0,1,0,1,0,1,1,0,1,1,0,0,0,0,0,1,1,0,1,1,0,1,1,1,0,0,1,1,0,1,0,0,0,0,1,0,1,0,4.95,0,1,0,0,0,0,0,50,1,0,1,1,1,0,74.2,0,1,0,0,0,0.324769,0,0,D
'National Central University',1,0,0,1,1,0,0,0,0,0,0,1,2,1,1,1,1,1,1,0,0,1,0,0,1,1,0,1,1,1,1,1,1,0,0,0,1,0,1,0,0,0,0,1,1,1,0,18.58,0,1,0,0,0,0,0,50,1,0,1,1,1,1,100,0,1,0,0,0,-0.414081,35,0,D
'Dalian University of Technology',1,0,0,1,0,0,0,0,0,0,1,1,10,0,1,1,1,1,1,4,0,0,1,0,1,1,0,1,1,1,1,1,1,0,1,1,0,0,1,0,0,0,0,0,0,1,0,12.63,0,1,0,0,0,0,0,75,1,0,1,1,0,0,0,0,1,0,0,0,0.990375,50,0,D
'University of Malaya',1,0,0,1,0,0,0,1,0,0,0,0,0,0,1,1,0,1,0,3,1,1,0,1,0,1,1,1,1,1,1,1,1,1,0,1,1,0,1,0,0,1,0,1,1,1,1,5.33,0,1,1,0,0,0,0,75,1,3,0,1,1,0,27.3,0,1,0,0,1.38629,0.00711559,0,0,D
'Singapore University of Technology and Design',1,0,0,1,0,0,1,1,1,1,1,0,1,0,1,1,1,1,1,0,1,0,0,1,1,1,0,1,1,0,1,1,1,1,1,1,1,1,1,1,0,0,1,0,1,1,1,21,0,1,1,0,0,0,1,90,1,0,1,1,1,0,80,0,1,0,0,0,-0.318965,0,0,D
'University of Hong Kong',1,0,0,1,0,0,1,1,0,0,1,1,3,1,0,1,1,1,1,2,0,0,0,1,0,1,0,1,1,1,1,1,1,1,1,1,1,0,1,0,0,0,0,1,1,1,0,12.63,0,1,0,0,0,0,0,90,1,0,0,1,1,0,82.9,0,1,1,0,0,0.608309,3650,1,D
'Universiti Teknologi Malaysia',1,0,0,1,0,0,1,1,0,0,1,0,1,0,0,0,1,0,0,0,0,0,0,1,0,1,1,1,1,1,1,1,1,1,1,0,1,0,1,0,1,0,0,0,1,1,1,5.74,0,1,1,0,0,0,1,90,1,0,0,0,1,1,13.3,0,1,1,0,0,-0.8423,3650,1,D
'Multimedia University of Kenya',1,0,0,1,1,0,0,0,1,1,0,0,1,1,1,1,0,1,1,1,0,0,0,0,0,1,0,1,1,1,1,1,1,1,1,0,1,0,1,1,0,0,1,0,1,1,1,5.33,0,1,1,0,0,1,0,90,1,3,0,0,1,1,33.3,0,1,0,0,1.38629,-0.325625,5,0,D
'Jilin University',1,0,0,0,0,0,0,1,0,0,1,1,10,0,1,1,1,0,0,1,1,0,0,0,0,1,0,0,1,1,1,1,1,0,1,0,1,0,1,0,0,0,0,0,1,0,0,21,0,1,0,0,0,0,0,75,1,0,0,0,1,0,0,0,0,0,0,0,-0.146594,62,0,D
'MNNIT Allahabad',1,0,0,1,0,0,0,0,0,0,1,0,0,1,1,1,0,1,1,0,0,0,1,0,0,1,0,1,1,1,1,1,1,0,1,1,1,1,1,1,0,0,0,0,1,0,0,11.29,0,1,0,0,0,0,0,75,1,0,1,1,1,1,29.8,0,0,0,0,0,0.0432258,3,0,D
'Uva Wellassa University',1,0,0,0,0,1,0,0,0,0,0,0,0,1,0,1,1,1,1,4,1,0,0,1,1,1,1,1,1,1,1,1,1,1,1,1,1,1,1,1,1,0,0,0,1,1,1,21,0,1,1,0,0,0,1,75,1,0,0,0,1,1,45.6,0,1,0,0,0,1.497,3650,1,D
'Stevens Institute of Technology',0,0,0,0,0,0,0,1,1,1,1,1,3,1,1,1,0,1,1,7,1,1,0,1,1,1,1,1,1,1,1,1,1,1,1,1,1,1,1,0,0,1,0,1,1,1,1,21,0,1,0,0,0,0,1,90,1,0,1,1,1,1,78.3,0,1,0,0,0,-0.405249,32,0,D
'NIT Srinagar',1,0,0,1,0,0,0,1,1,1,1,0,1,1,0,1,1,1,1,6,0,0,0,0,0,1,1,1,1,1,1,1,1,0,1,1,1,1,1,0,0,0,1,0,1,1,1,5.33,0,1,1,0,0,0,0,75,1,1,1,1,1,1,0,0,0,0,0,0.693147,-1.04083,3650,1,D
'IIIT Allahabad',1,0,0,0,0,0,0,1,0,0,1,0,0,1,1,1,1,1,1,8,1,1,0,0,0,1,0,1,1,1,1,1,1,1,1,0,1,1,1,0,0,0,0,1,0,1,0,12.63,0,1,0,0,1,0,0,75,1,1,0,0,1,1,0,0,1,0,0,0.693147,-0.00663471,0,0,D
'NIT Jalandhar',1,0,0,1,0,0,0,1,1,1,1,1,4,1,1,1,0,1,1,0,1,1,0,1,0,1,0,1,1,1,1,1,1,1,1,1,1,1,1,1,1,0,0,0,1,1,0,20.19,0,1,1,1,0,1,0,75,1,5,1,0,1,1,14.9,0,1,0,0,1.79176,0.068319,78,0,D
'NIT Hamirpur',1,0,0,1,1,0,0,1,1,0,1,1,5,1,1,1,1,1,1,15,1,1,0,0,0,1,0,1,1,1,1,1,1,1,0,0,1,1,1,1,1,0,0,0,1,1,0,5.83,0,1,1,0,0,1,0,75,1,0,1,1,1,1,74.5,0,1,0,0,0,0.56725,0,0,D
'Jaume I University',1,0,0,1,1,0,0,1,0,0,1,1,7,1,1,1,1,1,1,0,1,1,0,0,1,1,0,0,1,0,1,1,1,0,1,0,1,1,1,1,0,0,1,0,0,1,1,19.8,0,1,1,0,0,0,0,75,1,0,1,0,1,1,100,0,1,1,0,0,-0.00939172,0,0,D
'University of the West Indies',1,0,0,1,0,0,0,1,0,0,1,0,0,0,1,1,0,1,1,2,1,1,0,0,1,1,0,1,1,0,1,1,1,0,0,1,1,0,1,0,0,0,0,0,1,0,0,9.29,0,1,0,0,0,0,0,75,1,0,0,1,1,0,95,0,1,1,0,0,0.385141,11,0,D
'National Taiwan Normal University',1,0,0,0,1,0,0,0,0,0,0,0,0,0,1,1,0,1,0,0,1,0,0,0,1,1,0,1,1,0,1,1,1,0,1,0,0,0,0,0,0,0,1,0,0,1,0,12.63,0,1,1,0,0,0,0,75,1,2,1,1,1,1,10.8,0,0,0,0,1.09861,-0.259568,14,0,D
'University of Cordoba',1,1,7,1,1,0,0,0,0,0,0,1,2,1,1,0,1,0,0,0,0,0,1,0,0,1,0,0,1,0,1,0,1,0,0,0,0,0,1,0,0,0,0,0,0,1,1,12.63,0,1,1,0,0,0,1,75,1,1,0,0,1,0,53.3,0,1,0,0,0.693147,-0.269497,1257,0,D
'Capital Normal University',1,1,6,0,0,0,0,0,0,0,0,1,2,0,0,1,0,1,0,0,0,0,0,0,0,1,0,1,1,0,1,1,1,0,0,0,0,0,1,0,0,0,1,0,1,1,0,12.63,0,1,1,0,0,1,0,75,1,0,0,0,1,0,0,0,0,0,0,0,-0.2993,3650,1,D
'Federal University of ABC',1,1,8,0,0,0,0,1,0,0,1,0,0,0,0,1,1,0,0,0,1,1,0,0,0,1,0,1,1,0,1,1,1,0,0,0,0,0,1,0,0,0,0,0,1,1,0,9.52,0,1,1,0,0,0,1,90,1,0,0,0,0,1,66.7,0,1,0,0,0,0.295664,3650,1,D
'Korea University',1,1,9,0,0,0,1,1,0,0,1,1,10,0,1,0,1,0,0,2,0,0,0,1,1,1,0,0,1,0,0,1,1,0,0,0,0,0,0,0,0,0,1,1,1,1,1,14.94,0,1,1,1,0,0,0,75,1,0,0,0,0,1,100,0,1,0,0,0,2.35751,5,0,D
'Fudan University',1,0,0,0,0,0,0,0,0,0,1,1,7,0,0,1,0,1,1,0,1,0,0,0,1,1,0,1,1,0,1,1,1,0,1,1,1,0,1,0,0,0,0,0,1,0,0,12.63,0,1,0,0,0,0,0,75,1,2,1,1,1,0,0,0,0,0,0,1.09861,0.0121322,3650,1,D
'Politehnica University of Timisoara',1,1,1,0,0,0,0,1,0,0,0,0,0,0,1,0,1,1,0,0,0,0,0,0,1,0,0,0,0,0,1,1,0,0,0,0,1,0,1,0,0,0,1,0,1,1,1,19.51,0,0,1,0,0,0,0,75,1,0,1,1,1,1,100,0,1,0,0,0,-0.248897,0,0,D
'Externado University of Colombia',1,1,7,1,1,0,0,1,0,0,0,1,10,0,0,1,1,0,0,15,1,1,0,0,0,1,0,0,0,0,0,0,1,0,0,0,0,0,1,0,0,0,1,0,1,1,1,15.91,0,1,1,0,0,0,0,90,1,10,0,1,1,0,74.5,0,1,0,0,2.3979,-0.770205,3650,1,D
'West University of Timisoara',1,1,8,1,1,0,1,1,1,1,0,0,1,0,1,1,1,0,0,1,1,1,1,1,0,1,0,0,0,0,0,0,0,0,0,0,1,0,1,0,0,0,1,1,1,1,1,12.63,0,1,1,0,0,0,0,90,1,0,1,0,1,1,73.3,0,1,0,0,0,-0.0844497,14,0,D
'CEFET Rio de Janeiro',1,1,7,1,1,0,0,0,0,0,0,0,0,0,0,0,1,0,0,0,0,0,0,0,0,0,1,1,0,0,0,1,1,0,0,0,0,0,1,1,0,0,0,0,0,1,1,12.63,0,0,0,0,0,0,0,75,1,0,1,1,1,1,50,0,1,0,0,0,-0.00432184,3650,1,D
'Higher University of San Andres Bolivia',1,1,1,1,1,0,0,0,0,0,0,1,10,0,1,1,1,1,1,18,1,1,1,0,0,1,0,1,0,0,0,0,0,0,0,0,0,0,1,1,0,0,1,0,1,1,0,8.69,0,1,1,0,0,0,0,75,1,4,0,1,1,1,76.9,0,1,0,0,1.60944,1.11751,1,0,D
'University of Salento',1,1,1,1,0,0,0,0,1,1,0,1,6,0,0,1,1,1,0,16,1,1,0,0,0,1,0,1,0,0,1,1,0,0,0,0,1,1,0,0,0,0,1,0,0,1,1,21,0,1,1,0,0,0,0,75,1,0,1,1,1,0,71.7,0,1,0,0,0,-0.943765,3650,1,D
'Mohammed V University in Rabat',1,1,3,0,0,0,0,0,1,1,0,1,6,0,1,0,0,1,0,13,1,1,1,0,0,1,0,1,0,0,0,1,1,0,0,0,0,0,1,0,0,0,0,0,1,1,0,6.29,0,1,1,0,0,0,0,75,1,0,0,1,1,0,95.6,0,1,0,0,0,-0.581995,3650,1,D
'University of Guadalajara',1,1,4,1,1,0,0,0,0,0,1,0,0,0,0,0,0,0,0,0,0,0,0,0,0,0,0,1,1,0,1,0,1,0,0,0,0,0,1,0,0,0,1,0,1,1,1,12.63,0,0,1,0,0,0,0,75,1,0,1,0,1,1,23.1,0,1,0,0,0,0.174071,3650,1,D
'University of Padua',1,1,6,1,1,0,0,0,0,0,0,1,3,0,0,1,0,1,0,20,1,1,1,0,1,1,0,1,0,0,0,1,0,0,0,0,0,0,0,0,0,0,1,0,1,1,1,21,0,1,1,1,0,0,0,90,1,0,1,1,1,1,76.9,0,1,0,0,0,-1.66945,3650,1,D
'National Tsing Hua University',1,0,0,1,0,0,1,1,0,0,1,1,2,0,1,1,0,1,0,0,0,1,0,0,0,1,0,1,1,0,1,1,1,0,0,0,1,1,0,0,0,0,0,0,1,1,0,9.74,0,1,0,0,0,0,0,50,1,0,0,1,1,0,73.1,0,1,0,0,0,-0.262578,496,0,D
'Northeastern University China',1,0,0,0,0,0,0,0,0,0,1,1,9,0,0,1,0,1,1,0,1,0,0,0,0,1,0,0,1,1,0,1,1,0,1,0,1,0,1,0,0,0,0,0,1,1,0,21,0,1,0,0,0,0,0,75,0,0,1,0,1,0,0,0,0,0,0,0,0.242496,3650,1,D
'Hue University',0,0,0,1,0,0,0,0,0,0,1,0,0,1,1,1,0,1,0,0,0,0,1,0,0,1,1,1,1,0,1,1,1,1,0,0,1,0,0,0,0,0,0,0,1,0,0,21,0,1,0,0,0,0,0,0,1,0,0,1,1,0,43.4,0,0,0,0,0,2.83168,581,0,D
'Rio de Janeiro State University',1,1,6,1,0,0,0,0,0,0,0,0,0,0,1,0,1,0,0,1,1,1,1,0,1,1,0,0,1,0,0,1,0,0,0,0,0,1,1,1,0,0,0,0,1,1,1,12.63,0,1,1,0,1,0,0,90,1,1,0,1,1,0,14,0,1,0,0,0.693147,2.80144,0,0,D
'Central University of Haryana',1,1,20,1,0,0,0,0,0,0,0,0,0,0,0,1,1,1,1,0,0,0,0,0,0,1,0,1,1,0,0,1,0,0,0,0,0,1,1,0,0,0,0,0,1,1,0,21,0,1,0,0,0,1,0,75,1,0,1,1,1,1,100,0,1,0,0,0,-0.383359,3650,1,D
'University of Naples Federico II',1,1,1,0,1,1,0,0,0,0,0,1,3,0,1,1,1,0,0,20,1,1,1,0,1,1,0,1,0,0,0,0,0,0,0,0,0,1,1,0,0,0,1,0,1,1,1,21,0,1,1,0,0,0,0,100,1,0,1,1,1,0,100,0,1,0,0,0,0.55847,0,0,D
'National Cheng Kung University',1,0,0,0,1,0,1,1,0,0,1,0,1,1,0,1,0,1,1,0,0,0,0,0,0,1,0,1,1,0,1,1,1,0,0,0,1,0,0,1,0,0,0,1,0,1,0,10.05,0,1,0,0,0,0,0,50,1,10,1,1,1,1,96.3,0,1,0,0,2.3979,0.0647065,3650,1,D
'University of the Andes',1,1,1,1,0,0,0,0,0,0,0,1,2,0,1,1,1,0,0,16,1,1,1,0,0,1,0,1,0,0,0,0,0,0,0,0,1,0,1,0,0,0,0,0,0,1,0,5.74,0,1,1,0,0,0,0,100,1,0,1,1,1,1,83.3,0,1,1,0,0,-1.10147,5,0,D
'State University of Maringa',1,0,0,1,1,0,0,1,0,0,1,0,0,0,0,1,0,1,0,0,0,0,0,0,0,1,0,1,1,0,0,1,1,0,1,0,0,0,0,1,0,0,1,0,1,0,0,12.63,0,0,1,0,0,0,0,75,1,0,1,1,1,1,13.6,0,1,0,0,0,0.191181,3650,1,D
'Anahuac University',1,1,9,1,1,0,0,1,1,1,1,1,6,0,1,0,0,0,0,11,0,0,1,0,0,1,0,1,0,0,0,0,0,0,0,0,0,0,1,1,0,0,0,0,1,1,1,12.63,0,1,1,1,0,0,0,75,1,0,0,1,1,1,94,0,1,0,0,0,-0.849304,67,0,D
'Rey Juan Carlos University',1,1,7,1,0,0,0,0,0,0,0,1,8,0,0,0,1,0,0,4,0,0,1,0,0,1,0,0,0,0,0,0,1,0,0,0,1,0,1,1,0,0,0,0,1,1,1,1.82,0,1,1,0,0,0,0,75,1,0,0,1,1,0,85.1,0,1,0,0,0,1.22718,3650,1,D
'Cayetano Heredia University',1,1,1,1,0,0,0,0,0,0,0,0,1,0,1,0,0,0,0,9,1,1,1,0,1,1,0,0,1,0,0,1,0,0,0,0,0,0,1,1,0,0,1,0,1,1,1,21,0,1,0,0,0,0,0,90,1,2,1,1,1,1,89.6,0,1,0,0,1.09861,-0.796571,25,0,D
'Getulio Vargas Foundation',1,1,8,0,1,0,0,1,0,0,0,1,10,0,1,1,0,0,0,8,1,1,1,1,0,1,0,1,0,0,0,1,0,0,0,0,0,1,0,0,0,0,0,0,1,1,1,15.43,0,1,1,0,0,0,0,75,1,0,1,1,1,0,78.6,0,1,1,0,0,0.583028,0,0,D
'University of the Republic Uruguay',1,1,5,1,0,1,0,0,0,0,1,1,8,0,1,0,0,0,0,20,1,1,1,0,1,1,0,0,0,0,0,0,0,0,0,0,0,0,1,0,0,0,1,0,1,1,1,18.26,0,1,1,0,0,0,0,100,1,0,1,0,1,0,100,0,1,0,0,0,0.82944,0,0,D
'National University of Asuncion',1,1,9,1,0,0,0,0,0,0,0,1,6,0,1,0,1,0,0,0,0,0,1,0,0,1,0,1,0,0,0,0,0,0,0,0,0,0,1,0,0,0,1,0,1,1,1,18.88,0,1,1,0,0,0,0,90,1,0,1,1,1,1,18.2,0,1,0,0,0,-1.78334,1,0,D
'University of Tunis El Manar',1,1,6,1,0,0,0,1,1,0,0,1,5,0,0,0,0,1,0,0,0,0,1,0,0,1,1,1,0,0,0,1,0,1,0,0,0,0,1,0,0,0,1,0,1,1,1,4.48,0,1,1,0,0,0,0,75,1,0,1,1,1,1,2.6,0,0,0,0,0,1.09577,3650,1,D
'Osaka University',1,1,5,0,1,1,0,0,0,0,1,1,10,0,0,1,0,0,1,2,1,1,1,0,1,1,0,0,1,0,0,1,0,0,1,0,0,0,0,0,1,0,0,0,1,1,0,21,0,1,0,0,0,0,0,75,1,0,1,1,1,0,79,0,1,0,0,0,-0.340637,3650,1,D
'Federal University of Goias',1,1,7,1,1,0,0,0,1,1,0,1,10,0,1,0,1,0,0,7,1,1,1,0,1,1,0,0,0,0,0,0,0,0,0,0,0,0,0,0,0,0,1,0,1,1,1,21,0,1,1,0,0,0,0,75,1,0,1,1,1,0,66.9,0,1,0,0,0,-0.0144196,4,0,D
'Cracow University of Technology',1,1,5,1,0,1,0,0,0,0,0,0,1,0,1,0,0,0,0,0,0,0,1,0,0,1,0,0,0,0,0,1,0,0,0,0,0,0,0,0,0,0,1,0,1,1,1,10.17,0,1,1,0,0,0,0,75,1,0,1,1,1,0,94.9,0,1,1,0,0,-0.60072,0,0,D
'Pablo de Olavide University',1,1,5,1,0,0,0,0,0,0,0,0,0,0,0,0,0,0,0,0,1,1,0,0,0,1,0,0,0,0,1,1,0,0,0,0,1,0,1,0,0,0,1,0,1,1,1,12.63,0,1,0,1,0,0,0,75,1,1,1,1,0,0,95.5,0,1,0,0,0.693147,-0.0373369,3650,1,D
'Torcuato di Tella University',1,1,16,1,0,0,0,0,1,1,1,1,2,0,0,0,1,0,0,0,0,0,0,0,0,1,0,0,0,0,0,0,1,0,0,0,0,0,1,0,0,0,1,0,1,1,1,14.13,0,1,1,0,0,0,0,75,1,0,1,1,1,1,10.3,0,0,0,0,0,-0.0354564,3650,1,D
'National University of Mar del Plata',1,1,8,1,0,0,0,1,1,1,0,0,0,0,0,1,0,0,0,20,1,1,0,0,1,1,0,0,0,0,1,0,0,0,0,0,0,0,1,1,0,0,1,0,0,1,1,21,0,1,1,0,0,0,0,50,1,1,1,1,1,0,89.2,0,1,0,0,0.693147,-0.114415,3650,1,D
'Vietnam National University Hanoi',1,1,8,0,0,0,1,1,0,0,1,1,9,0,1,0,0,0,0,0,1,1,1,1,0,1,0,0,0,0,1,1,0,0,0,0,0,0,0,0,0,0,1,1,1,1,0,6.89,0,1,1,0,0,0,0,75,1,0,1,1,1,0,100,0,1,0,0,0,-0.477491,1,0,D
'National University of Salta',1,1,8,1,0,0,0,0,0,0,0,0,0,0,1,1,1,0,0,0,1,0,1,0,1,1,0,0,0,0,0,0,0,0,0,0,0,0,1,0,0,0,0,0,1,1,0,16.62,0,1,1,0,0,0,0,90,1,1,1,0,1,1,28.6,0,1,0,0,0.693147,0.546985,1,0,D
'Federal University of Acre',1,1,10,1,1,0,0,0,0,0,0,0,0,0,1,0,1,0,0,20,0,0,1,0,0,1,0,0,0,0,0,0,0,0,0,0,0,0,0,0,0,0,0,0,0,1,1,14.74,0,0,1,1,0,0,0,75,1,0,1,0,1,1,80,0,1,0,0,0,-0.606959,1,0,D
'National University of Mongolia',1,1,5,1,1,0,0,0,0,0,0,1,2,0,1,1,0,0,0,5,1,1,0,0,0,1,0,0,0,0,0,0,0,0,0,0,0,0,0,0,0,0,1,0,1,1,1,14.55,0,1,0,0,0,0,0,90,1,0,1,0,1,1,26.7,0,1,0,0,0,1.23198,1,0,D
'University of Bio-Bio',1,1,7,1,0,0,0,0,0,0,0,1,4,0,1,0,0,0,0,5,0,1,1,0,0,1,0,0,0,0,0,0,0,0,0,0,0,0,0,0,0,0,1,0,1,1,1,15.43,0,1,1,0,0,0,0,75,1,0,1,1,1,0,98.2,0,1,1,0,0,-0.0221331,1,0,D
'Federal University of Alagoas',1,1,10,1,0,0,0,0,0,0,0,1,10,0,1,0,1,0,0,2,0,0,1,0,0,1,0,0,0,0,0,0,0,0,0,0,0,1,0,0,0,0,0,0,0,1,1,12.71,0,1,1,1,0,0,0,75,1,0,1,1,1,0,50,0,1,0,0,0,0.186693,1,0,D
'Federal University of Jequitinhonha and Mucuri Valleys',0,1,10,1,0,0,0,0,0,0,0,0,0,0,1,0,1,0,0,0,0,0,1,0,0,1,0,0,0,0,0,0,0,0,0,0,0,0,1,1,0,0,0,0,0,1,1,14.74,0,1,0,0,1,0,0,75,1,1,0,1,1,1,94.7,0,1,0,0,0.693147,1.04963,1,0,D
'University of Aveiro',1,1,4,1,1,0,0,0,0,0,0,0,0,0,1,0,0,0,0,0,0,0,0,0,0,1,0,0,0,0,0,0,0,0,0,0,1,0,1,0,0,0,1,0,1,1,1,21,0,1,0,0,0,0,0,100,1,0,0,1,1,0,93.8,0,1,0,0,0,-0.0289176,11,0,D
'University of Extremadura',1,1,5,1,0,0,0,0,0,0,0,1,6,0,1,0,0,0,0,0,1,1,1,0,0,1,0,0,0,0,0,0,0,0,0,0,0,0,1,0,0,0,1,0,0,1,1,15.43,0,1,1,0,0,0,0,75,1,0,1,1,1,0,69.4,0,1,0,0,0,-1.27678,1,0,D
'Tampere University',0,1,4,0,1,0,0,0,0,0,0,0,0,0,0,0,0,1,0,0,0,0,0,0,0,0,0,0,0,0,0,1,0,0,1,0,0,0,1,1,0,0,1,0,0,0,1,21,0,0,0,0,1,0,0,70,1,0,1,1,1,0,0,0,1,0,0,0,-0.765924,3650,1,D
'Federal University of Mato Grosso do Sul',1,1,9,0,1,0,0,0,0,0,0,0,0,0,1,0,1,0,0,20,1,1,1,0,0,1,1,0,0,0,0,0,0,0,0,0,0,0,1,1,0,0,1,0,0,0,0,4.76,0,1,1,0,0,0,0,90,1,0,1,1,1,1,86,0,1,0,0,0,0.211376,1,0,D
'Universidad Nacional Autonoma de Mexico (UNAM)',1,1,6,1,0,0,0,0,0,0,0,0,0,0,1,0,1,0,0,2,1,1,1,0,1,1,1,0,0,0,0,0,0,0,0,0,0,0,0,0,0,0,0,0,0,1,1,19.42,0,1,1,0,0,0,0,75,1,1,1,1,1,1,100,0,1,0,0,0.693147,-0.371067,1,0,D
'Charles University',1,1,7,1,0,0,0,0,0,0,1,1,10,0,0,1,0,0,0,5,1,1,0,1,1,1,0,0,0,0,1,1,0,0,0,0,1,0,0,1,0,0,1,0,1,1,1,12.61,0,1,1,0,0,0,0,75,1,3,1,0,1,0,6.9,0,1,0,0,1.38629,1.0167,3650,1,D
'University of Panama',1,1,11,1,0,0,0,0,0,0,0,1,6,0,1,0,1,0,0,0,1,1,1,0,1,1,1,1,0,0,0,0,0,0,0,0,0,0,1,0,0,0,0,0,1,1,0,12.63,0,1,1,0,0,0,0,75,1,1,0,0,1,1,88,0,1,1,0,0.693147,-0.912695,29,0,D
'Norwegian University of Life Sciences',1,1,4,1,1,0,0,0,0,0,0,1,3,0,1,0,0,0,0,1,1,1,1,0,0,1,0,0,0,0,0,0,0,0,0,0,1,0,0,0,0,0,1,0,0,1,1,12.63,0,1,0,1,0,0,0,90,1,0,1,1,1,1,95.7,0,1,0,0,0,0.870411,0,0,F
'State University of Santa Cruz',1,1,8,0,1,0,0,0,0,0,1,0,0,0,0,0,1,0,0,0,0,0,0,0,0,1,0,1,1,0,1,1,0,0,0,0,0,0,1,0,0,0,1,0,1,1,0,15.43,0,0,1,0,0,0,0,75,1,0,1,1,1,0,8.9,0,1,0,0,0,0.169162,3650,1,F
'Federal University of Bahia',1,1,7,1,0,0,0,0,0,0,0,0,0,0,1,0,1,0,0,1,1,1,1,0,0,1,0,0,0,0,0,0,0,0,0,0,0,0,0,0,0,0,1,0,0,1,1,12.63,0,1,1,0,0,0,0,75,1,0,1,1,1,0,25,0,1,0,0,0,-0.296875,1,0,F
'University of Bergen',1,1,7,0,1,1,0,0,0,0,0,0,0,0,1,0,0,0,0,4,1,1,1,0,0,1,0,0,0,0,0,0,0,0,0,0,0,0,0,0,0,0,0,0,0,1,1,18.53,0,1,1,1,0,0,0,100,1,0,1,0,1,0,89.5,0,1,0,0,0,-0.0869468,0,0,F
'Beijing University of Chemical Technology',1,1,4,1,0,0,0,0,0,0,0,0,0,1,1,1,0,1,0,0,0,0,0,0,0,1,0,0,0,0,0,0,0,0,0,0,0,0,0,0,0,0,1,0,1,0,0,16.48,0,1,0,0,0,0,0,75,1,2,1,0,1,0,0,0,1,0,0,1.09861,-0.230873,8,0,F
'University of Valladolid',0,1,0,0,0,0,0,0,0,0,0,0,0,0,0,0,0,1,0,0,0,0,0,0,1,1,0,0,1,0,0,1,1,0,0,0,0,0,1,0,0,0,0,0,0,0,0,15.43,0,1,0,0,0,0,0,75,1,6,1,0,1,0,100,0,1,0,0,1.94591,0.492189,3650,1,F
'University of San Andres',1,0,0,1,0,0,0,0,1,1,0,0,0,0,1,0,1,0,0,17,1,1,1,0,1,1,0,1,0,0,0,0,1,0,0,0,0,0,0,0,0,0,1,0,0,1,1,11.13,0,1,0,0,0,0,0,90,1,0,1,1,1,1,40,0,1,0,0,0,-1.17313,3650,1,F
'Ricardo Palma University',1,1,6,0,0,0,0,1,1,1,0,1,2,0,1,0,1,0,0,0,1,1,1,0,1,1,0,1,0,0,0,0,0,0,0,0,0,0,1,1,0,0,0,0,1,1,0,6.01,0,1,1,0,0,0,0,75,1,0,1,1,1,1,100,0,1,0,0,0,-0.587745,0,0,F
'University of the State of Rio de Janeiro Norte',1,1,9,1,0,0,0,0,0,0,0,0,0,0,1,0,1,0,0,18,0,0,1,0,0,1,0,1,0,0,0,0,0,0,0,0,0,0,0,0,0,0,1,0,1,1,0,21,0,1,1,0,0,0,0,90,1,0,1,0,0,0,33.3,0,1,0,0,0,0.295805,1,0,F
'Tashkent State Technical University',1,0,0,1,0,0,0,0,0,0,0,1,9,0,1,0,0,0,0,4,1,1,1,0,1,1,0,0,0,0,0,0,1,0,0,0,0,0,0,0,0,0,0,0,1,1,0,7.23,0,1,1,0,0,0,0,75,1,0,1,1,1,1,70.9,0,1,0,0,0,0.543787,4,0,F
'National University of Engineering Peru',1,1,10,0,0,0,0,1,0,0,0,0,0,0,1,0,0,0,0,1,0,1,1,0,0,1,0,1,0,0,0,0,0,0,0,0,0,0,1,0,0,0,1,0,1,1,1,12.63,0,1,1,0,0,0,0,75,1,0,1,1,1,1,63.6,0,1,0,0,0,0.0324226,26,0,F
'University of Malaga',1,1,5,1,0,0,0,0,0,0,0,1,6,0,0,1,1,0,0,6,1,1,0,0,1,1,0,0,1,0,0,0,0,0,0,0,1,0,1,0,0,0,1,0,0,1,1,12.63,0,1,0,0,0,0,0,75,1,0,0,0,1,0,35.9,0,1,0,0,0,1.045,3650,1,F
'Federal University of Vicosa',1,1,7,1,0,0,0,0,0,0,0,0,0,0,1,0,0,0,0,0,1,0,1,0,1,1,0,0,0,0,0,1,0,0,0,0,0,0,0,0,0,0,1,0,0,1,1,17.61,0,1,1,0,0,0,0,75,1,0,1,0,1,1,33.3,0,1,0,0,0,-0.221563,1,0,F
'Warsaw University of Technology',1,1,5,1,0,0,0,0,1,1,0,1,4,0,0,0,0,0,0,1,1,1,0,1,0,1,0,0,0,0,0,1,0,0,0,0,0,0,1,1,0,0,1,0,1,1,1,15.43,0,1,1,0,0,0,0,75,1,0,1,1,1,0,86.4,0,1,0,0,0,1.40919,3650,1,F
'Volda University College',1,1,4,1,1,0,0,0,0,0,0,1,10,0,1,0,0,0,0,13,1,1,1,0,0,1,0,0,0,0,0,0,0,0,0,0,0,0,0,1,0,0,1,0,0,1,1,14.11,0,1,1,0,0,0,0,75,1,0,1,0,1,1,19.4,0,1,0,0,0,-0.401459,1,0,F
'Aswan University',1,1,9,1,1,0,0,1,0,0,0,0,0,0,1,0,0,0,0,1,1,1,0,0,1,1,0,0,0,0,0,0,0,0,0,0,0,0,0,0,0,0,0,1,0,1,0,5.74,0,1,1,0,0,0,0,90,1,0,1,1,1,1,31.5,0,1,1,0,0,0.528192,0,0,F
'University of Murcia',1,1,1,0,1,0,0,0,1,1,0,1,5,0,1,0,0,0,0,12,1,0,1,0,0,1,0,1,1,0,0,0,0,0,0,0,1,0,1,1,0,0,0,0,0,0,0,15.18,0,1,1,0,0,0,0,100,1,0,1,1,1,0,81.4,0,1,0,0,0,0.11045,28,0,F
'Federal University of Uberlandia',1,1,10,0,0,1,0,1,0,0,0,0,0,0,1,0,1,0,0,2,1,1,1,0,0,1,0,0,0,0,0,0,0,0,0,0,0,0,0,0,0,0,0,0,1,1,1,15.43,0,1,1,0,0,0,0,75,1,0,1,1,1,1,41.1,0,1,0,0,0,-0.338528,0,0,F
'University of Beira Interior',1,1,6,0,0,0,1,1,0,0,1,0,0,0,1,1,0,1,1,14,1,1,0,1,1,1,0,0,1,0,0,1,0,0,0,0,0,0,0,0,0,0,1,0,0,1,0,15.43,0,1,1,0,0,1,0,75,1,0,1,0,1,0,19.4,0,1,0,0,0,-0.131563,641,0,F
'University of Health Sciences Lahore',1,0,0,0,0,0,0,0,0,0,0,0,0,1,0,1,0,1,0,0,1,1,0,0,0,0,0,1,0,0,0,0,1,0,0,0,0,0,0,0,1,0,0,0,0,0,0,15.43,0,0,0,0,0,0,0,75,1,0,1,1,0,1,0,0,1,0,0,0,-1.05387,3650,1,F
'Federal University of Lavras',1,1,6,1,0,0,0,0,0,0,0,0,0,0,0,0,0,0,0,0,1,1,1,0,0,1,0,0,0,0,0,0,0,0,0,0,0,0,1,1,0,0,1,1,1,1,1,12.63,0,1,1,1,0,0,0,75,1,0,1,1,1,1,96.7,0,1,0,0,0,1.00966,3650,1,F
'Beni-Suef University',1,1,7,1,0,0,0,1,0,0,0,1,10,0,1,0,0,0,0,2,0,0,0,0,0,1,0,1,0,0,0,1,0,0,0,0,0,0,0,0,0,0,0,0,1,0,0,15.91,0,1,1,0,0,0,0,75,1,0,1,0,1,1,42.9,0,0,0,0,0,0.36761,0,0,F
'Fluminense Federal University',1,1,8,1,0,0,0,0,1,1,0,1,5,0,0,0,1,0,0,17,0,0,0,0,0,1,0,0,0,0,0,0,0,0,0,0,0,1,0,0,0,0,1,0,1,1,1,18.35,0,1,1,0,0,0,0,100,1,0,1,1,1,1,85,0,1,0,0,0,0.845989,3650,1,F
'National Agrarian University La Molina',1,1,3,1,0,0,0,0,0,0,0,1,4,0,1,0,0,0,0,0,1,1,1,0,0,1,0,1,0,0,0,0,0,0,0,0,0,0,0,1,0,0,1,0,1,1,1,12.63,0,1,0,0,0,0,0,75,1,0,0,1,1,0,100,0,1,0,0,0,-0.485506,7,0,F
'Vilnius University',1,1,2,1,1,0,0,0,0,0,0,0,0,0,1,0,0,0,0,7,1,0,0,0,0,1,0,0,0,0,0,0,0,0,0,0,1,0,0,0,0,0,1,0,1,1,1,10.21,0,1,0,0,0,0,0,90,1,0,1,1,1,0,25.9,0,1,0,0,0,0.315561,0,0,F
'State University of Montes Claros',1,1,2,1,0,0,0,0,0,0,0,0,0,0,1,0,1,0,0,0,0,1,1,0,0,1,0,0,1,0,0,0,0,0,0,0,0,1,0,0,0,0,1,0,1,1,1,8.57,0,1,1,0,0,0,0,90,1,1,1,1,1,0,59.2,0,1,0,0,0.693147,1.6071,13,0,F
'Andalas University',1,1,8,0,0,0,0,0,0,0,0,0,0,0,1,0,0,0,0,0,1,0,0,0,0,1,0,0,0,0,0,0,0,0,0,0,1,0,1,0,0,0,0,0,1,1,0,21,0,1,1,0,0,0,0,75,1,0,1,1,1,0,69.1,0,1,1,0,0,-0.556553,0,0,F
'Federal University of Juiz de Fora',1,1,7,1,0,0,0,0,0,0,0,0,1,0,1,0,0,0,0,0,0,0,1,0,0,1,0,0,1,0,0,0,0,0,0,0,0,1,0,0,0,0,0,0,1,1,0,6.93,0,1,0,0,0,1,0,75,1,0,1,1,1,1,45.5,0,1,0,0,0,0.184589,4,0,F
'Federal University of the Semi-Arid Region',1,1,5,1,1,0,0,0,0,0,0,0,0,0,0,0,1,0,0,0,0,0,0,0,1,1,0,0,0,0,0,0,0,0,0,0,0,1,1,1,0,0,1,0,0,1,1,12.63,0,1,1,0,0,0,0,90,1,0,1,0,1,1,26,0,0,0,0,0,0.583168,3650,1,F
'University of Guadalajara CUCEA',1,1,7,1,0,0,0,0,0,0,0,0,0,0,1,0,1,0,0,4,0,0,1,0,1,1,0,0,0,0,0,0,0,0,0,0,0,0,0,0,0,0,1,0,1,1,1,12.63,0,1,1,0,0,0,0,75,1,1,0,0,1,1,78.3,0,1,0,0,0.693147,0.0479899,189,0,F
'State University of Goias',1,1,20,0,0,0,0,0,0,0,0,0,0,0,1,0,1,0,0,2,1,1,1,0,0,1,0,0,0,0,0,0,0,0,0,0,0,0,1,1,0,0,0,0,0,1,1,19.03,0,1,0,0,0,0,0,75,1,0,1,0,1,1,30.9,0,0,0,0,0,-0.015261,1,0,F
'UiT The Arctic University of Norway',1,1,15,1,0,0,0,0,0,0,0,1,7,0,0,1,0,0,1,0,1,1,1,0,0,1,0,1,1,0,0,1,0,0,0,0,0,0,0,1,0,0,0,0,0,1,1,15.43,0,1,0,1,0,1,0,75,1,0,1,0,1,0,100,0,1,0,0,0,0.491639,3650,1,F
'Ewha Womans University',1,1,2,0,0,0,0,1,0,0,0,0,0,0,1,0,0,0,0,14,1,1,1,0,1,1,0,0,0,0,0,0,0,0,0,0,0,1,0,0,0,0,1,1,1,1,1,12.63,0,1,0,1,0,0,0,75,1,0,1,0,1,1,100,0,1,0,0,0,4.00698,0,0,F
'Autonomous University of Hidalgo',1,1,8,1,0,0,0,1,0,0,0,1,3,0,1,0,1,0,0,4,1,1,1,0,1,1,0,1,0,0,0,0,0,0,0,0,1,0,0,0,0,0,0,0,1,1,0,12.63,0,1,0,0,0,0,0,75,1,1,1,1,1,1,67.7,0,1,0,0,0.693147,-0.315528,3650,1,F
'University of Electronic Science and Technology of China',0,1,8,1,1,0,0,0,0,0,0,1,10,0,0,1,0,0,1,5,1,0,0,0,0,1,0,0,1,0,0,1,0,0,0,0,0,0,0,0,0,0,0,0,0,1,0,19.77,0,1,0,0,0,0,0,75,1,0,1,0,1,0,55.8,0,1,0,0,0,1.83718,3650,1,F
'Minia University',1,1,9,0,1,0,0,0,0,0,0,1,9,0,1,0,0,0,0,6,1,1,0,0,0,1,0,0,0,0,0,0,0,0,0,0,0,0,0,0,0,0,0,0,1,1,1,15.43,0,1,1,0,0,0,0,75,1,1,1,1,1,0,61.5,0,1,0,0,0.693147,-0.530665,0,0,F
'Autonomous University of Queretaro',1,1,7,1,0,0,0,1,1,1,0,0,0,0,0,0,1,0,0,0,1,1,0,0,0,1,0,1,0,0,0,0,0,0,0,0,0,0,1,0,0,0,0,0,0,1,1,9.76,0,1,1,0,0,0,0,75,1,2,1,1,1,1,16.9,0,1,0,0,1.09861,-0.315668,3650,1,F
'National University of the South',1,1,7,0,0,0,0,0,0,0,0,0,0,0,1,0,0,0,0,4,0,1,1,0,1,1,0,0,0,0,0,0,0,0,0,0,0,0,0,0,0,0,1,0,0,1,0,10.55,0,1,1,0,0,0,0,75,1,0,1,1,1,1,100,0,1,0,0,0,-0.228154,0,0,F
'Fuzhou University',1,0,0,0,0,0,0,0,0,0,0,1,2,0,0,0,0,0,0,0,0,0,0,0,0,0,0,0,1,1,1,0,1,0,0,0,1,0,1,0,0,0,0,0,1,0,0,21,0,0,0,0,0,0,0,0,1,0,1,0,0,0,0,0,0,0,0,0,0.599078,3650,1,F
'Adolfo Ibanez University',1,1,4,0,0,0,0,1,1,1,0,1,10,0,0,0,0,0,0,20,1,1,0,0,1,1,0,1,0,0,1,0,0,0,0,0,1,0,0,0,0,0,1,0,0,1,1,17.96,0,1,0,0,0,0,0,100,1,0,1,1,1,1,78.8,0,1,0,0,0,-1.20469,3650,1,F
'Catholic University of the North',1,1,9,1,1,0,0,0,0,0,0,1,10,0,0,0,0,0,0,0,1,1,0,0,0,1,0,0,0,0,0,0,0,0,0,0,1,0,1,1,0,0,1,0,1,1,1,10.7,0,1,1,0,0,0,0,75,1,0,0,1,1,1,18.5,0,1,0,0,0,-0.506823,3650,1,F
'National University of Cuyo',1,1,4,1,0,0,0,0,1,1,0,0,0,0,0,0,1,0,0,0,1,1,0,0,0,1,0,1,0,0,0,0,0,0,0,0,0,0,1,0,0,0,0,0,1,1,0,14.02,0,1,1,0,0,0,0,75,1,0,1,1,1,1,86.8,0,1,0,0,0,-0.376535,3650,1,F
'Kanazawa Institute of Technology',1,0,0,0,1,0,0,0,0,0,0,1,10,0,0,1,0,1,0,7,1,1,0,0,0,1,0,1,1,0,1,0,0,0,0,0,0,0,0,0,0,0,1,0,1,1,1,21,0,1,1,0,0,0,0,100,1,0,0,1,1,0,45.5,0,1,0,0,0,0.268382,3650,1,F
'University of Szczecin',1,1,6,0,0,0,0,0,0,0,0,0,0,0,0,1,0,1,0,0,1,1,0,0,0,1,0,1,0,0,0,1,0,0,0,0,0,0,0,0,0,0,0,0,1,1,0,4.03,0,1,0,0,0,0,0,90,0,0,1,1,1,1,100,0,1,1,0,0,1.26068,3650,1,F
'Renmin University of China',1,0,0,1,1,0,0,0,0,0,0,1,10,0,1,1,0,0,1,5,1,1,0,0,0,1,0,0,1,0,1,0,0,0,0,0,0,0,0,0,0,0,1,0,1,0,0,12.63,0,1,1,0,0,0,0,75,1,0,0,0,1,0,0,0,1,0,0,0,0.363698,0,0,F
'Nord University',1,1,5,1,1,0,0,0,0,0,0,1,4,0,0,0,0,0,0,4,1,1,0,0,0,1,0,0,0,0,0,0,0,0,0,0,0,0,0,0,0,0,1,0,0,1,1,18.77,0,1,1,0,0,0,0,100,1,1,1,1,1,1,84.6,0,1,0,0,0.693147,-0.196311,3650,1,F
'Naresuan University',1,1,9,1,1,0,0,0,0,0,0,0,0,0,0,0,0,1,0,0,1,1,0,0,0,1,0,0,1,0,0,0,0,0,0,0,0,0,0,0,0,0,1,0,0,1,1,5.74,0,1,1,0,0,0,0,90,1,0,1,0,1,0,17,0,1,0,0,0,0.250322,3650,1,F
'Federal University of Rio Grande do Sul',1,1,10,0,0,0,0,0,0,0,0,0,0,0,0,1,1,0,0,20,1,1,0,0,1,1,0,0,0,0,0,0,0,0,0,0,0,0,1,1,0,0,1,0,0,1,0,11.37,0,1,1,0,0,0,0,90,1,1,1,1,1,1,28.6,0,1,0,0,0.693147,2.35672,3650,1,F
'Pontifical Bolivarian University',1,1,5,0,0,0,0,1,0,0,0,1,2,0,0,0,0,0,0,14,1,1,0,0,1,1,0,1,0,0,0,0,0,0,0,0,0,0,1,0,0,0,1,0,1,1,1,21,0,1,1,0,0,0,0,100,1,0,1,1,1,1,33.3,0,1,0,0,0,-0.4482,3650,1,F
'Federal University of Piaui',1,1,4,1,0,0,0,0,1,1,1,0,0,0,0,0,1,0,0,0,1,1,1,0,0,1,0,0,0,0,0,0,0,0,0,0,0,0,1,1,0,0,0,0,0,1,1,12.63,0,1,1,0,0,0,0,75,1,0,1,0,1,1,54.5,0,1,0,0,0,0.697048,3650,1,F
'Autonomous University of Nayarit',1,1,10,1,0,0,0,0,0,0,0,0,0,0,0,0,1,0,0,0,1,1,0,0,1,1,0,1,0,0,0,0,0,0,0,0,0,0,1,0,0,0,0,0,1,1,0,12.98,0,1,0,0,0,0,0,75,1,1,1,1,1,1,87.1,0,1,0,0,0.693147,0.77769,3650,1,F
'University of Fortaleza',1,1,1,1,1,0,0,0,0,0,0,0,0,0,0,1,0,0,0,18,1,1,0,0,0,1,0,0,0,0,0,0,0,0,0,0,0,0,0,0,0,0,1,0,0,1,1,15.43,0,1,1,1,0,0,0,100,1,0,1,1,1,1,69,0,1,0,0,0,1.93724,3650,1,F
'University of Chemistry and Technology Prague',1,0,0,0,0,0,0,0,0,0,0,1,9,0,1,0,0,0,0,0,1,1,1,1,0,1,0,0,0,0,0,0,1,0,0,0,1,0,0,0,0,0,1,0,1,1,1,16.3,0,0,1,0,0,0,0,75,1,0,1,0,1,0,81,0,1,0,0,0,0.0155082,0,0,F
'University of Guelph',0,0,0,0,0,0,1,1,0,0,0,0,0,0,0,1,0,0,1,0,1,0,0,0,0,1,0,0,0,0,1,0,1,0,0,0,0,1,0,0,0,0,0,0,0,0,0,7.46,0,1,0,0,0,0,1,75,1,0,0,1,0,1,33.3,0,1,0,0,0,0.0550681,3650,1,F
'Federal University of Minas Gerais',1,1,6,1,0,0,0,1,0,0,0,1,10,0,1,0,1,0,0,2,1,1,1,0,0,1,0,0,0,0,0,0,0,0,0,0,0,0,0,0,0,0,1,0,1,1,1,20.14,0,1,1,0,0,0,0,90,1,0,0,0,1,0,14.3,0,1,0,0,0,-0.466853,3650,1,F
'Federal University of Paraiba',0,1,7,1,1,0,0,0,0,0,0,1,10,0,0,0,1,0,0,5,1,1,0,0,0,1,0,0,0,0,0,0,0,0,0,0,0,0,0,0,0,0,1,0,1,1,1,21,0,1,0,0,0,0,0,90,1,0,1,0,1,0,30,0,1,0,0,0,3.87783,3650,1,F
'University of Salamanca',1,1,4,0,0,0,0,0,0,0,0,0,0,0,1,0,1,0,0,0,0,0,1,0,0,1,0,0,0,0,0,1,0,0,0,0,1,0,1,0,0,0,1,0,1,1,1,4.48,0,1,0,0,0,0,0,75,1,0,1,0,1,0,2.7,0,0,0,0,0,3.89703,113,0,F
'Amazonas State University',1,1,7,1,0,0,0,0,0,0,0,0,0,0,0,0,1,0,0,1,1,1,0,0,0,1,0,0,0,0,0,0,0,0,0,0,0,0,0,0,0,0,1,0,1,1,1,3.9,0,1,1,0,0,0,0,90,1,0,1,1,1,1,77.6,0,1,0,0,0,0.0920271,3650,1,F
'Nanjing Agricultural University',1,1,6,1,0,0,0,0,0,0,0,1,10,1,0,1,0,0,0,0,1,0,0,0,1,1,0,1,0,0,0,1,0,0,0,0,0,0,0,0,0,0,0,0,1,0,0,11.98,0,1,0,0,0,0,0,75,1,1,1,1,1,0,1.7,0,0,0,0,0.693147,-0.0763611,3650,1,F
'University of Sao Paulo',1,1,4,1,0,0,0,0,0,0,0,0,0,0,1,0,0,0,0,1,0,0,1,0,0,1,0,0,0,0,0,0,0,0,0,0,0,0,0,0,0,0,1,0,0,0,0,18.96,0,1,1,0,0,0,0,90,1,3,1,0,1,1,0,0,1,0,0,1.38629,0.366629,4,0,F
'University of Quintana Roo',1,1,10,0,0,0,0,0,1,1,0,1,3,0,0,0,1,0,0,20,1,1,0,0,1,1,0,1,0,0,0,0,0,0,0,0,0,0,0,1,0,0,1,0,0,1,1,13.97,0,1,1,1,0,0,0,75,1,0,1,1,0,1,86.5,0,1,0,0,0,-0.450865,3650,1,F
'University of Karachi',1,1,1,1,1,0,0,0,0,0,0,0,0,0,0,0,0,0,0,0,0,0,0,0,0,1,0,1,1,0,0,1,0,0,0,0,0,0,1,1,0,0,0,0,1,0,0,21,0,1,1,0,0,0,0,90,1,0,0,0,1,0,11.1,0,1,0,0,0,0.100419,3650,1,F
'University of Iceland',1,1,4,1,1,0,0,0,1,1,0,0,0,0,0,0,0,0,0,0,0,0,0,0,0,1,0,0,0,0,0,0,0,0,0,0,0,0,0,0,0,0,1,0,1,1,1,21,0,1,1,1,0,0,0,75,1,0,1,1,1,1,82.6,0,1,0,0,0,0.250844,3650,1,F
'Ferhat Abbas University of Setif',1,1,4,1,0,0,0,0,0,0,0,1,10,0,0,0,0,0,0,1,1,1,0,0,0,1,0,0,0,0,0,0,0,0,0,0,0,0,1,0,0,0,0,0,1,1,0,15.33,0,1,0,0,0,0,0,75,1,0,1,1,1,1,17.7,0,1,0,0,0,-0.261393,3650,1,F
'Instituto Politecnico Nacional',1,1,3,1,0,0,0,0,0,0,0,1,9,0,0,0,1,0,0,0,1,1,0,0,0,1,0,0,0,0,0,0,0,0,0,0,0,0,0,0,0,0,1,0,0,1,1,15.43,0,1,0,0,0,0,0,75,1,0,0,1,1,1,97.2,0,1,0,0,0,-0.494226,3650,1,F
'Federal University of Parana',1,1,7,1,0,0,0,0,0,0,0,0,0,0,0,0,1,0,0,20,1,1,0,0,1,1,0,0,0,0,0,0,0,0,0,0,0,0,0,0,0,0,1,0,1,1,0,15.43,0,1,1,0,0,0,0,90,1,0,1,0,1,1,44.4,0,1,0,0,0,1.0565,3650,1,F
'University of Sonora',1,1,4,1,0,0,0,0,0,0,0,0,0,0,0,0,1,0,0,0,0,0,0,0,1,1,0,1,0,0,0,0,0,0,0,0,0,0,0,0,0,0,1,0,1,1,1,16.29,0,1,1,0,0,0,0,75,1,0,0,0,1,1,99.1,0,1,0,0,0,-0.143165,3650,1,F
'Ceara State University',1,1,9,0,0,0,0,0,0,0,0,0,0,0,0,0,1,0,0,0,0,0,0,0,0,1,0,0,0,0,0,0,0,0,0,0,0,0,1,1,0,0,0,0,1,1,1,21,0,1,1,0,0,0,0,75,1,0,0,0,1,1,51.7,0,1,0,0,0,-0.0362979,3650,1,F
'Diego Portales University',1,0,0,1,0,0,0,0,0,0,0,0,0,0,0,0,0,0,0,0,0,0,0,0,0,1,0,1,0,0,0,1,0,0,1,0,1,0,1,0,0,0,1,0,0,1,1,21,0,1,1,0,1,0,0,75,1,2,1,0,0,1,0,0,1,0,0,1.09861,-1.2124,3650,1,F
'State University of Londrina',1,0,0,1,1,1,0,0,0,0,0,1,10,0,1,0,0,0,0,1,1,1,0,0,1,1,0,0,0,0,0,0,0,0,0,0,0,0,0,0,0,0,1,0,1,1,1,14.53,0,1,1,0,0,0,0,75,1,0,1,0,1,0,58.7,0,1,0,0,0,-0.230539,0,0,F
'Autonomous University of Ciudad Juarez',1,1,8,1,1,0,0,1,0,0,0,0,0,0,0,0,1,0,0,1,1,1,0,0,0,1,0,1,0,0,0,0,0,0,0,0,0,0,0,0,0,0,0,0,0,1,0,15.43,0,0,0,0,0,0,0,75,1,0,1,0,1,0,0,0,1,0,0,0,-1.10806,3650,1,F
'National University of Rio Cuarto',1,1,6,0,0,0,0,0,0,0,0,0,0,0,0,0,1,0,0,0,0,0,0,0,0,1,0,0,0,0,0,0,0,0,0,0,0,0,1,0,0,0,0,0,0,1,0,7.46,0,1,0,0,0,0,0,75,1,0,0,1,0,1,62.5,0,1,0,0,0,-1.18589,3650,1,F
'Autonomous University of Chihuahua',1,1,20,1,1,0,0,0,1,1,0,0,0,0,0,0,1,0,0,0,0,1,0,0,0,1,0,1,0,0,0,0,0,0,0,0,0,0,0,0,0,0,0,0,1,1,0,12.63,0,1,1,0,0,0,0,100,1,1,1,1,1,0,53.1,0,1,0,0,0.693147,0.184028,3650,1,F
'Federal University of Sergipe',1,1,8,1,0,0,0,0,0,0,0,0,0,0,0,0,0,0,0,20,1,1,0,0,0,1,0,0,0,0,0,0,0,0,0,0,0,0,0,0,0,0,0,0,1,1,1,18.59,0,0,1,0,0,0,0,90,1,7,1,1,1,0,9.5,0,1,0,0,2.07944,-1.27032,3650,1,F
'University of Antioquia',1,0,0,1,1,0,0,0,0,0,0,0,0,0,1,0,0,0,0,8,1,1,0,0,1,1,0,0,0,0,0,0,0,0,0,0,0,0,0,0,0,0,1,0,1,1,1,21,0,1,0,0,0,0,0,75,1,0,1,0,1,1,50,0,1,1,0,0,-0.474847,32,0,F
'University of Valle',1,1,8,0,0,0,0,0,0,0,0,0,0,0,0,0,0,0,0,0,1,0,1,0,1,1,0,1,0,0,0,0,0,0,0,0,0,0,1,0,0,0,1,0,1,1,1,5.1,0,1,1,0,0,0,0,90,1,2,1,1,1,0,80,0,1,0,0,1.09861,2.94225,3650,1,F
'National University of the Northeast',1,1,0,1,0,0,0,0,0,0,0,0,0,0,0,0,0,0,0,1,1,1,0,0,0,1,0,0,0,0,0,0,0,0,0,0,0,0,1,0,0,0,1,0,0,1,1,12.63,0,1,1,0,0,0,0,90,1,0,1,0,1,1,28.9,0,1,0,0,0,-0.0301271,3650,1,F
'Federal University of Sao Carlos',1,1,10,1,0,1,0,0,0,0,0,0,0,0,0,0,0,0,0,1,0,0,0,0,1,1,0,0,0,0,0,0,0,0,0,0,0,0,0,0,0,0,0,0,1,1,0,8.45,0,1,1,0,0,0,0,75,1,5,0,0,1,1,84.6,0,1,0,0,1.79176,-1.23091,3650,1,F
'University of Valparaiso',1,1,2,1,1,0,0,0,0,0,0,0,0,0,0,0,1,0,0,0,1,1,0,0,0,1,0,0,0,0,0,0,0,0,0,0,1,0,0,0,0,0,0,0,1,1,1,14.18,0,1,1,0,0,0,0,90,1,0,1,0,1,0,12,0,1,0,0,0,-1.12068,3650,1,F
'National University of Tucuman',1,1,6,0,0,0,0,0,0,0,0,0,0,0,0,0,0,0,0,0,0,0,0,0,0,1,0,0,0,0,0,0,0,0,0,0,0,0,1,1,0,0,1,0,0,1,0,7.46,0,1,1,0,0,0,0,75,1,0,1,0,1,1,95.5,0,1,0,0,0,-0.960098,3650,1,F
'University of Buenos Aires',1,1,3,1,1,0,0,0,0,0,0,1,4,0,0,0,0,0,0,0,1,1,0,0,1,1,0,0,0,0,0,0,0,0,0,0,0,0,0,0,0,0,0,0,0,1,1,15.43,0,1,1,0,0,0,0,75,1,0,1,1,0,1,37.5,0,1,0,0,0,-0.412438,3650,1,F
'Sofia University St. Kliment Ohridski',0,0,0,1,0,0,0,0,0,0,0,0,0,0,0,0,0,0,0,3,1,1,0,0,0,0,0,0,0,0,0,0,1,0,0,0,0,0,0,0,0,0,0,0,1,0,0,11.62,0,0,0,1,0,0,0,20,1,0,1,1,1,1,50,0,0,0,0,0,-0.934809,3650,1,F
'National University of La Plata',1,1,6,1,0,0,0,0,0,0,0,0,0,0,0,0,0,0,0,0,0,0,0,0,0,1,0,0,0,0,0,0,0,0,0,0,0,0,0,0,0,0,0,0,1,1,0,7.46,0,1,1,0,0,0,0,90,1,0,1,1,1,1,50,0,1,0,0,0,-0.528,3650,1,F
'Kyrgyz National University',1,1,8,1,1,0,0,0,0,0,0,0,0,0,0,0,0,0,0,0,1,1,0,0,1,1,0,0,0,0,0,0,0,0,0,0,0,0,0,0,0,0,0,0,0,1,0,7.38,0,1,1,0,1,0,0,90,1,0,1,0,1,1,71.4,0,1,0,0,0,-0.205914,3650,1,F
'State University of Ponta Grossa',1,1,9,1,0,0,0,0,0,0,0,0,0,0,0,0,0,0,0,0,0,0,0,0,0,1,0,0,0,0,0,0,0,0,0,0,0,0,0,1,0,0,0,0,1,1,0,12.75,0,1,0,0,0,0,0,90,1,0,1,0,1,1,39.3,0,1,0,0,0,-1.10862,3650,1,F
'National University of Cordoba',1,1,5,1,0,0,0,0,0,0,0,0,0,0,0,0,0,0,0,0,0,0,0,0,0,1,0,0,0,0,0,0,0,0,0,0,0,0,0,0,0,0,0,0,0,1,0,15.91,0,1,1,0,0,0,0,75,1,0,1,0,1,1,53.5,0,1,0,0,0,-1.09866,3650,1,F
'Federal Technological University of Parana',0,1,0,1,0,0,0,0,0,0,0,0,0,0,0,0,1,0,0,0,1,1,0,0,1,1,1,0,0,0,0,0,0,0,0,0,1,0,1,1,0,0,0,0,0,1,0,21,0,1,0,0,0,0,0,75,1,0,1,0,1,0,15.2,0,1,0,0,0,3.19819,3650,1,F
'Federal University of Tocantins',1,1,20,1,0,0,0,0,0,0,0,0,0,0,0,0,0,0,0,0,1,0,1,0,0,1,0,0,0,0,0,0,0,0,0,0,0,0,0,0,0,0,0,0,0,1,1,21,0,1,1,0,0,0,0,75,1,0,0,1,1,1,25,0,1,0,0,0,-0.440206,3650,1,F
'American University in Bulgaria',1,1,9,0,0,0,0,0,0,0,0,0,0,0,0,0,0,0,0,0,0,0,0,0,0,1,0,0,1,0,0,0,0,0,0,0,0,0,0,0,0,0,0,0,0,0,0,14.6,0,1,1,0,0,0,0,90,1,0,1,0,1,1,100,0,1,1,0,0,-0.74385,3650,1,F
'Prince of Songkla University',1,1,12,0,1,0,1,1,0,0,1,0,0,0,0,0,0,0,0,0,1,1,0,0,0,1,0,0,0,0,0,0,0,0,0,0,0,0,0,0,0,0,1,0,1,1,1,5.74,0,1,0,0,0,0,0,75,1,1,1,0,1,1,34.1,0,1,0,0,0.693147,-0.481906,3650,1,F
'Austral University of Chile',1,1,7,0,0,0,0,0,0,0,0,1,3,0,0,0,0,0,0,0,1,1,0,0,0,1,0,0,0,0,0,0,0,0,0,0,1,0,1,1,0,0,0,0,1,1,0,4.48,0,1,1,0,0,0,0,75,1,0,0,0,0,1,33.3,0,1,0,0,0,2.1291,3650,1,F
'Sao Paulo State University',1,0,0,1,0,0,0,1,0,0,0,0,0,0,0,1,0,0,0,0,0,0,0,0,1,1,0,0,0,0,0,0,0,0,0,0,0,0,1,1,0,0,0,0,0,1,0,12.63,0,1,1,0,0,0,0,75,1,0,1,0,1,1,60.8,0,1,0,0,0,-0.188465,3650,1,F
'National University of the Littoral',1,1,1,1,0,0,0,0,0,0,0,0,0,0,0,0,0,0,0,0,0,0,1,0,0,1,0,0,0,0,0,0,0,0,0,0,0,0,0,1,0,0,1,0,1,1,1,4.61,0,1,0,0,0,0,0,90,1,0,1,0,1,1,0,0,1,0,0,0,-0.495603,3650,1,F
'China Agricultural University',1,1,11,0,0,0,0,0,0,0,0,1,10,1,0,0,0,0,0,0,0,0,0,0,0,1,0,0,0,0,0,1,0,0,0,0,0,0,0,0,0,0,1,0,1,1,0,12.82,0,1,0,0,0,0,0,75,1,0,0,0,1,1,0,0,0,0,0,0,0.0899903,3650,1,F
'Federal University of Maranhao',0,1,10,1,0,0,0,0,0,0,0,0,0,0,0,0,0,0,0,0,0,0,0,0,0,0,0,0,0,0,0,0,0,0,0,0,0,0,0,0,0,0,0,0,0,1,0,14.74,0,0,0,0,0,0,0,75,1,0,0,0,1,0,33.3,0,1,0,0,0,-0.378919,3650,1,F
'Zhengzhou University',1,0,0,1,0,0,0,0,0,0,0,1,10,0,1,0,0,0,0,0,1,1,0,0,1,1,0,0,0,0,0,0,0,0,0,0,0,0,0,0,0,0,0,0,1,1,0,12.63,0,1,0,0,0,0,0,75,1,0,1,1,1,0,20.7,0,1,0,0,0,-0.211609,8,0,F
'Pontifical Catholic University of Sao Paulo',1,0,0,0,0,0,0,0,0,0,0,0,0,0,1,0,0,0,0,0,1,0,1,0,0,0,0,0,0,0,0,0,0,0,0,0,0,0,0,0,0,0,0,0,0,0,0,21,0,0,0,1,0,0,0,100,1,0,1,1,1,0,100,0,1,0,0,0,-0.799236,0,0,F
'National University of San Marcos',1,0,0,0,0,0,0,1,0,0,0,0,1,0,0,0,0,0,0,0,1,0,0,0,1,1,0,0,0,0,0,0,0,0,0,0,0,0,1,0,0,0,1,0,1,1,1,21,0,1,1,0,0,0,0,90,1,0,1,1,1,1,100,0,1,0,0,0,-0.582977,3650,1,F
'Federal University of Campina Grande',1,1,4,0,1,0,0,0,0,0,0,0,0,0,0,0,0,0,0,0,0,0,0,0,0,1,0,0,0,0,0,0,0,0,0,0,0,0,0,0,0,0,0,0,0,1,0,12.63,0,1,0,0,0,0,0,75,1,2,1,0,1,1,100,0,1,0,0,1.09861,1.17318,3650,1,F
'Hefei University of Technology',1,0,0,1,0,0,0,0,0,0,1,1,10,1,0,1,0,0,0,0,0,0,0,0,0,1,0,0,0,0,0,1,0,0,0,0,0,0,0,0,0,0,0,0,1,0,0,12.55,0,1,0,0,0,0,0,75,1,0,0,0,1,0,0,0,1,0,0,0,1.29057,3650,1,F
'Autonomous University of Puebla',1,0,0,0,0,0,0,0,0,0,0,0,0,0,0,0,1,0,0,12,1,1,0,0,0,1,1,1,0,0,0,0,0,0,0,0,0,0,0,0,0,0,1,0,1,1,1,21,0,1,1,0,0,0,0,75,1,0,1,0,1,1,10.3,0,1,0,0,0,-1.17033,3650,1,F
'University of Science and Technology of China',1,1,20,1,0,0,0,0,0,0,0,0,0,0,0,0,0,0,0,0,0,0,0,0,0,1,0,0,0,0,0,0,0,0,0,0,0,0,0,0,0,0,1,0,0,0,0,18.8,0,0,1,0,0,0,0,75,1,0,1,0,1,0,0,0,0,0,0,0,0.535066,3650,1,F
'Hokkaido University',1,0,0,0,0,0,0,0,0,0,1,0,0,0,1,0,0,0,0,1,1,0,1,0,0,1,0,1,0,0,0,0,0,0,0,0,0,0,0,0,0,0,0,0,1,1,0,12.63,0,1,0,0,0,0,0,100,1,0,0,1,1,0,75.3,0,1,0,0,0,-0.459832,3650,1,F
'Federal University of Alfenas',0,1,7,0,0,0,0,0,0,0,0,0,0,0,0,0,0,0,0,0,0,0,0,0,0,1,0,0,0,0,0,0,0,0,0,0,0,0,0,0,0,0,0,0,0,0,0,15.91,0,1,0,0,0,0,0,90,1,0,1,0,1,1,0,0,0,0,0,0,0.890447,3650,1,F
'Federal University of Ceara',1,0,0,1,0,0,0,0,0,0,0,0,0,0,0,0,1,0,0,0,0,0,0,0,1,1,0,0,0,0,0,0,0,0,0,0,0,0,0,0,0,0,0,0,1,1,0,2.02,0,1,0,1,0,0,0,75,1,0,1,1,1,1,95.2,0,1,0,0,0,0.262566,3650,1,F
'University of Zagreb',1,0,0,1,0,0,0,0,0,0,0,1,3,0,0,1,0,0,0,0,0,0,0,0,0,1,0,0,0,0,0,1,0,0,0,0,1,1,0,0,0,0,0,0,0,1,0,1.48,0,1,0,0,0,0,0,75,1,4,1,1,1,0,0,0,0,0,0,1.60944,1.96827,3650,1,F
'Vietnam National University Ho Chi Minh City',1,0,0,0,0,0,1,1,0,0,0,1,4,0,1,0,0,0,0,0,0,0,1,0,0,1,0,0,0,0,0,0,0,0,0,0,0,0,0,0,0,0,0,0,0,1,0,10.05,0,0,0,0,0,0,0,75,1,0,1,0,1,1,39.7,0,0,0,0,0,0.0891877,1,0,F
'Autonomous University of Yucatan',1,0,0,0,0,0,0,0,0,0,0,0,0,0,0,0,1,0,0,0,1,1,0,0,1,1,1,0,0,0,0,0,0,0,0,0,0,0,0,0,0,0,0,0,1,1,1,21,0,1,0,0,0,0,0,75,1,0,1,1,0,1,33.3,0,1,0,0,0,-0.279905,3650,1,F
'Xi\'an Jiaotong University',1,0,0,1,0,0,0,0,0,0,0,0,0,0,1,0,0,0,0,0,0,0,0,0,0,1,0,1,0,0,0,0,0,0,0,0,0,0,0,0,0,0,0,0,0,0,0,21,0,0,0,0,0,0,0,0,1,0,1,0,0,0,0,0,0,0,0,0,-0.985174,20,0,F
'Autonomous Metropolitan University',1,0,0,0,0,0,0,0,0,0,0,0,0,0,0,0,0,0,0,0,0,0,0,0,0,1,0,1,0,0,0,0,0,0,0,0,0,0,0,0,0,0,0,0,0,0,0,21,0,0,0,0,0,0,0,75,1,0,1,0,1,1,84.6,0,1,0,0,0,-1.2023,3650,1,F
'Visva-Bharati University',1,0,0,0,0,0,0,0,0,0,0,0,0,0,0,0,0,1,0,0,0,0,0,0,0,0,0,1,0,0,0,0,0,0,0,0,0,0,0,0,0,0,0,0,0,0,0,17.05,0,0,0,0,0,0,0,0,1,0,1,0,1,1,0,0,0,0,0,0,-1.2872,3650,1,F
'Harbin Institute of Technology',1,0,0,0,0,0,0,0,0,0,0,1,3,0,0,0,0,0,0,0,1,0,0,0,1,1,0,0,0,0,0,0,0,0,0,0,0,0,0,0,0,0,0,0,1,0,0,9.01,0,1,0,0,0,0,0,75,1,0,0,1,1,0,67.7,0,1,0,0,0,1.70996,3650,1,F
'Donghua University',1,0,0,1,0,0,0,0,0,0,0,1,5,0,0,0,0,0,0,0,1,0,0,0,0,1,0,0,0,0,0,0,0,0,0,0,0,0,0,0,0,0,0,0,1,1,0,12.63,0,1,0,0,0,0,0,20,1,0,1,0,1,0,25,0,0,0,0,0,-0.100842,3650,1,F
'Pusan National University',1,0,0,0,0,0,0,0,0,0,0,0,0,0,0,0,0,0,0,0,0,0,0,0,1,0,0,0,0,0,0,0,0,0,0,0,0,0,0,0,0,0,0,0,1,0,0,17.4,0,0,0,0,0,0,0,75,1,0,0,0,1,0,100,0,1,0,0,0,0.144973,3650,1,F
'University of Melbourne',0,0,0,0,0,0,0,1,0,0,0,0,0,0,0,0,0,0,0,0,0,0,0,0,0,0,0,0,0,0,0,0,0,0,0,0,0,0,0,0,0,0,0,0,0,0,0,21,0,0,0,0,0,0,0,55,1,0,1,1,1,1,0,1,1,0,0,0,-0.713807,3650,1,F
'Chonnam National University',1,0,0,0,0,0,0,0,0,0,0,0,0,0,0,0,0,0,0,0,0,0,0,0,0,0,0,0,0,0,0,0,0,0,0,0,0,0,0,0,0,0,0,0,1,0,0,21,0,0,0,0,0,0,0,75,1,0,0,0,1,1,0,0,0,0,0,0,0.235673,3650,1,F
'Beijing Normal University',1,0,0,0,0,0,0,0,0,0,0,1,8,0,0,0,0,0,0,0,0,0,0,0,0,1,0,0,0,0,0,0,0,0,0,0,0,0,0,0,0,0,1,0,1,1,0,12.82,0,1,1,0,0,0,0,75,1,1,0,0,1,0,0,0,0,0,0,0.693147,0.356072,3650,1,F
'State University of Feira de Santana',1,0,0,0,0,0,0,0,0,0,0,0,0,0,0,0,0,0,0,0,0,0,0,0,0,0,0,0,0,0,0,0,0,0,0,0,0,0,0,0,0,0,0,0,0,0,0,21,0,0,0,0,0,0,0,0,1,1,0,0,1,1,100,0,0,0,0,0.693147,0.171406,3650,1,F
'University of Valencia',1,0,0,0,0,0,0,0,0,0,0,0,0,0,0,0,0,0,0,0,0,0,0,0,0,0,0,0,0,0,0,0,0,0,0,0,0,0,0,0,0,0,0,0,1,0,0,21,0,0,0,0,0,0,0,0,1,0,0,0,0,0,25,0,0,0,0,0,0.207542,3650,1,F
'Inha University',0,0,0,0,0,0,0,0,0,0,0,0,0,0,0,0,0,0,0,0,0,0,0,0,0,0,0,0,0,0,0,0,0,0,0,0,0,0,0,0,0,0,0,0,0,0,0,1,1,0,0,0,0,0,0,55,1,0,0,1,0,1,0,1,0,0,0,0,-0.419097,3650,1,F
