% University Website Quality - CSE 4112 Machine Learning Laboratory, KUET
%
% 1225 university landing pages, 71 predictive attributes.
% 60 attributes are nominal {0,1} presence flags; 11 are numeric counts, percentages, ratios or z-scores.
% Identifier columns (uni_id, name, url, country, region) are excluded on purpose so no
% model can memorise a university; index_*.csv maps instance number back to the name.
% All 22 Bangladeshi universities are in the test split and none is in train.
% There are no missing values: they were imputed during dataset construction and every
% imputed column carries a companion *_was_missing flag.
%
% Relation: website_quality_train_named
% Instances: 981
% Target attribute: website_score (numeric, 0-100)
%
% Attribute 1 is the university name, present only so Weka can label its
% predictions. It must NOT reach the model: wrap the scheme in
%   weka.classifiers.meta.FilteredClassifier
%     -F "weka.filters.unsupervised.attribute.Remove -R 1"
% and set 'Output predictions' to also output attribute 1.

@relation website_quality_train_named

@attribute university string
@attribute a01_logo {0,1}
@attribute a02_primary_nav {0,1}
@attribute a03_nav_item_count numeric
@attribute a04_search_bar {0,1}
@attribute a05_language_toggle {0,1}
@attribute a06_breadcrumb {0,1}
@attribute a07_qs_badge {0,1}
@attribute a09_national_rank {0,1}
@attribute a11_accreditation {0,1}
@attribute a12_accred_count numeric
@attribute a13_achievements {0,1}
@attribute a14_stats_block {0,1}
@attribute a15_stat_item_count numeric
@attribute a16_notice_board {0,1}
@attribute a17_notice_timestamp {0,1}
@attribute a20_news_events {0,1}
@attribute a21_calendar_link {0,1}
@attribute a22_admission_notice {0,1}
@attribute a23_upcoming_events {0,1}
@attribute a24_event_count numeric
@attribute a25_event_images {0,1}
@attribute a26_event_captions {0,1}
@attribute a27_event_datetime {0,1}
@attribute a28_contests {0,1}
@attribute a29_video_content {0,1}
@attribute a30_image_gallery {0,1}
@attribute a31_social_feed_embed {0,1}
@attribute a32_vision_mission {0,1}
@attribute a33_about_blurb {0,1}
@attribute a34_department_links {0,1}
@attribute a35_faculty_link {0,1}
@attribute a36_research_highlight {0,1}
@attribute a37_programs_listing {0,1}
@attribute a38_scholarship {0,1}
@attribute a39_library_link {0,1}
@attribute a40_career_link {0,1}
@attribute a41_alumni_link {0,1}
@attribute a42_faq_link {0,1}
@attribute a43_contact_link {0,1}
@attribute a44_student_portal {0,1}
@attribute a45_prospectus {0,1}
@attribute a46_admissions_policy {0,1}
@attribute a47_footer_contact {0,1}
@attribute a48_footer_sitemap {0,1}
@attribute a49_copyright_line {0,1}
@attribute a50_social_links {0,1}
@attribute a51_quick_links {0,1}
@attribute a53_contrast_ratio numeric
@attribute a53_contrast_ratio_was_missing {0,1}
@attribute a54_banner_carousel {0,1}
@attribute a57_logo_prominence {0,1}
@attribute a58_live_chat {0,1}
@attribute a59_feedback_form {0,1}
@attribute a60_trust_seal {0,1}
@attribute a61_testimonials {0,1}
@attribute a63_mobile_score numeric
@attribute a65_https {0,1}
@attribute a66_broken_links numeric
@attribute a67_gzip {0,1}
@attribute a69_title_meta {0,1}
@attribute a70_favicon {0,1}
@attribute a71_sitemap_robots {0,1}
@attribute a72_alt_text_pct numeric
@attribute a72_alt_text_pct_was_missing {0,1}
@attribute a73_accessible_design {0,1}
@attribute a74_a11y_toggle {0,1}
@attribute a75_bookmark {0,1}
@attribute broken_links_log numeric
@attribute load_time_z_region numeric
@attribute notice_recency_days numeric
@attribute notice_recency_days_was_missing {0,1}
@attribute website_score numeric

@data
'Eotvos Lorand University',1,1,5,1,1,0,1,1,1,1,1,1,10,1,1,1,1,1,1,15,1,1,1,1,0,1,0,1,1,1,1,1,1,1,1,1,1,1,1,0,1,1,1,0,1,1,1,19.44,0,1,1,1,0,0,0,100,1,1,1,1,1,0,86.2,0,1,1,0,0.693147,-0.631531,5,0,94.94
'University of New England',1,1,6,1,0,1,0,1,1,1,1,0,0,0,1,1,1,1,1,11,1,1,1,1,0,1,0,1,1,1,1,1,1,1,1,1,1,1,1,0,1,1,1,1,1,1,1,15.91,0,1,1,0,0,0,1,90,1,0,1,1,1,1,13.8,0,1,1,0,0,0.217901,1,0,94.36
'University of Strasbourg',1,1,6,1,0,0,0,0,1,0,1,0,0,1,1,1,1,1,1,17,1,1,1,1,0,1,0,1,1,1,1,1,1,1,1,1,1,1,1,1,1,1,0,1,1,1,1,18.88,0,0,1,0,0,0,0,75,1,0,1,1,1,0,26.5,0,1,1,0,0,-1.13669,0,0,93.72
'University of Porto',0,1,5,1,1,0,1,1,1,1,1,0,1,0,1,1,1,1,1,10,1,1,1,1,0,1,0,1,1,1,1,1,1,1,1,1,1,1,1,0,1,1,1,0,1,1,1,15.43,0,1,0,0,0,1,0,75,1,0,1,1,1,1,100,0,1,1,0,0,-0.478907,6,0,93.36
'Nanyang Technological University',1,1,7,1,0,1,1,1,1,0,1,0,0,1,1,1,1,1,1,0,1,1,0,0,0,1,0,1,1,1,1,1,1,1,1,1,1,1,1,1,1,1,1,0,1,1,1,12.63,0,1,1,1,0,0,0,100,1,0,1,1,1,1,47.1,0,1,0,0,0,-0.626786,0,0,92.9
'Gauhati University',1,1,7,1,0,0,0,1,1,1,1,1,10,1,1,1,1,1,1,11,1,0,1,0,0,1,0,1,1,1,1,1,1,1,1,1,1,1,1,0,0,1,0,1,1,1,1,16.81,0,1,1,0,0,0,0,90,1,0,1,1,1,1,58.5,0,1,1,0,0,-1.25657,0,0,92.73
'RWTH Aachen University',1,1,6,1,1,0,0,1,0,0,1,0,0,1,1,1,1,1,1,4,0,0,1,1,0,1,0,1,1,1,1,1,1,1,1,1,1,1,1,1,0,1,0,1,1,1,1,16.98,0,1,1,0,0,0,0,90,1,0,1,1,1,0,91.7,0,1,1,0,0,0.537227,0,0,92.46
'Southern Cross University',1,1,6,1,1,0,1,1,1,1,1,0,0,0,1,1,1,1,1,4,1,1,0,0,0,1,0,1,1,1,1,1,1,1,1,1,1,1,1,1,0,1,1,1,1,1,1,16.04,0,1,1,1,0,0,0,100,1,0,1,1,1,1,83,0,1,0,0,0,-0.524304,0,0,91.98
'Maynooth University',1,1,20,1,0,0,0,1,0,0,1,1,10,1,1,1,0,1,1,7,1,1,1,1,0,1,0,1,1,1,1,1,1,1,1,1,1,1,1,1,1,1,1,1,1,1,1,12.63,0,1,1,0,0,1,1,75,1,0,1,1,1,1,72.7,0,1,1,0,0,-1.01812,0,0,91.88
'Sophia University',1,1,5,1,1,0,0,0,0,0,1,1,7,1,1,1,0,1,1,12,1,1,1,1,1,1,0,1,1,1,1,1,1,1,1,1,1,1,1,0,1,1,0,1,1,1,1,13.46,0,1,1,0,0,0,1,100,1,1,0,1,1,1,41.6,0,1,0,0,0.693147,0.0988196,0,0,91.84
'City, University of London',1,1,2,1,0,1,0,1,1,2,1,1,8,0,1,1,1,1,1,18,1,1,1,0,0,1,0,1,1,1,1,1,1,1,1,1,1,1,1,0,1,1,0,0,1,1,1,16.67,0,1,1,0,0,1,0,100,1,0,1,1,1,1,87.9,0,1,1,0,0,-1.01157,0,0,91.61
'University of Otago',1,1,7,1,0,0,0,1,0,0,1,0,0,1,1,1,1,1,1,3,1,1,0,0,0,1,0,1,1,1,1,1,1,1,1,1,1,1,1,1,0,1,1,0,1,1,1,15.42,0,1,1,0,0,0,0,100,1,0,1,1,1,1,82.6,0,1,1,0,0,0.257822,0,0,89.99
'University of Tartu',1,1,8,1,1,0,0,1,1,1,1,1,10,0,1,1,1,1,1,20,1,1,1,1,0,1,0,1,1,1,1,1,1,1,1,1,1,1,1,1,0,1,0,0,0,1,1,15.43,0,1,1,0,0,0,0,75,1,0,1,1,1,1,74.1,0,1,1,0,0,-1.28251,0,0,89.66
'University of Surrey',1,1,4,1,0,0,0,1,0,0,1,0,0,0,1,1,1,1,1,1,1,1,0,0,0,1,0,0,1,1,1,1,1,1,1,1,1,1,1,0,1,1,1,0,1,1,1,10.76,0,1,1,1,0,0,0,100,1,0,0,1,1,1,42.1,0,1,1,0,0,-0.465476,0,0,88.98
'University of Limpopo',1,1,9,1,0,0,0,0,1,1,1,1,10,1,1,1,1,1,1,6,1,0,0,0,1,1,0,1,1,1,1,1,1,1,1,1,1,0,1,1,1,1,1,0,1,1,1,4.32,0,1,1,0,0,0,0,90,1,0,1,1,1,1,19.1,0,1,0,0,0,-0.141202,6,0,88.98
'Lancaster University',1,1,2,1,0,0,1,1,0,0,1,0,0,1,1,1,1,1,1,0,1,1,0,0,0,1,0,1,1,1,1,1,1,1,1,1,1,1,1,0,1,1,1,0,1,1,1,16.52,0,1,1,0,0,0,1,100,1,0,1,1,1,1,88.9,0,1,1,0,0,-1.12117,5,0,88.86
'University of Mannheim',1,1,6,1,1,1,0,1,0,0,1,1,4,1,1,1,1,1,1,19,1,1,1,1,0,1,0,1,1,1,1,1,1,1,1,1,1,1,1,1,0,0,0,1,0,1,1,13.01,0,1,1,0,0,1,0,90,1,0,1,1,1,1,88.6,0,1,1,1,0,-0.756709,0,0,88.71
'Symbiosis International University',1,1,7,1,0,0,0,0,1,1,1,1,10,1,1,1,1,1,1,13,1,1,1,0,1,1,0,1,1,1,1,1,1,1,1,1,1,1,1,1,1,0,0,1,1,1,1,15.95,0,1,1,1,0,0,1,100,1,1,0,1,1,1,98.1,0,1,0,0,0.693147,-0.0587765,0,0,88.66
'Nazarbayev University',1,1,7,1,1,0,0,1,1,1,1,1,10,1,1,1,1,1,1,6,1,0,1,1,1,1,0,1,1,1,1,1,1,1,1,1,1,1,1,1,0,1,0,0,1,1,0,11.9,0,1,0,0,0,0,1,90,1,0,1,0,1,1,84.6,0,1,0,0,0,1.3963,0,0,88.32
'Lincoln University',1,1,19,1,0,0,0,1,1,1,1,1,10,0,1,1,1,1,1,20,1,1,0,1,0,1,0,1,1,1,1,1,1,1,1,1,1,1,1,0,1,1,1,0,1,1,1,15.91,0,1,1,0,0,0,1,100,1,0,1,1,1,1,90,0,1,0,0,0,1.03555,0,0,88.26
'Indian Institute of Technology Madras',1,1,9,1,1,1,0,1,1,0,1,1,8,1,1,1,1,1,1,2,1,1,1,1,1,1,0,1,1,1,1,1,1,1,1,1,1,1,1,0,0,0,1,1,1,1,1,21,0,1,1,0,0,0,0,75,1,0,1,1,1,1,85.1,0,1,1,0,0,-0.934921,1,0,88.12
'University of Caen Normandy',1,1,5,1,1,1,0,1,1,2,1,0,0,1,1,1,1,1,1,20,1,0,1,1,0,1,0,1,1,1,1,1,1,1,1,1,1,1,1,1,0,0,1,1,0,1,1,21,0,1,0,0,0,1,1,75,1,0,1,1,1,0,52.6,0,1,1,0,0,-1.25697,0,0,87.91
'Queensland University of Technology',0,1,16,1,0,0,0,1,0,0,1,0,0,0,1,1,1,1,1,6,1,1,0,1,0,1,0,1,1,1,1,1,1,1,1,1,1,1,1,1,1,1,1,0,1,1,1,11.46,0,1,0,1,0,0,1,75,1,0,1,1,1,1,20,0,1,0,0,0,0.122579,0,0,87.91
'University of Liege',1,1,4,1,1,0,0,0,1,1,1,0,0,1,1,1,1,1,1,1,1,1,0,0,0,1,0,1,1,1,1,1,1,1,1,1,1,1,1,1,1,0,1,1,1,1,1,8.86,0,1,0,0,0,0,0,90,1,0,1,1,1,1,88.5,0,1,1,0,0,0.184886,0,0,87.81
'London School of Economics',1,1,3,1,0,0,0,1,0,0,1,0,1,1,1,1,1,1,1,7,1,1,0,1,0,1,0,1,1,1,1,1,1,1,1,1,1,1,1,0,0,1,1,0,1,1,1,12.63,0,1,1,0,0,1,1,75,1,1,1,1,1,1,94.1,0,1,1,0,0.693147,0.304435,11,0,87.5
'Curtin University',0,1,4,1,0,0,1,1,1,1,1,1,5,0,1,1,1,1,1,1,1,1,1,1,1,1,1,1,1,1,1,1,1,1,1,1,1,1,1,1,0,1,1,0,1,1,1,8.72,0,1,0,0,0,0,0,90,1,0,1,1,1,0,93.2,0,1,1,0,0,-0.0762114,0,0,87.5
'University of Houston',1,1,4,1,0,0,0,1,0,1,1,1,10,1,1,1,1,1,1,7,0,0,0,0,1,1,0,1,1,1,1,1,1,1,1,1,1,1,1,0,0,1,1,0,1,1,1,18.88,0,1,1,0,0,0,0,75,1,0,1,1,0,1,77.8,0,1,1,0,0,1.14827,0,0,87.38
'Sokoine University of Agriculture',1,1,6,1,0,0,0,0,1,1,1,0,0,1,1,1,0,1,1,6,1,1,1,0,0,1,0,1,1,1,1,1,1,1,1,1,1,1,1,1,1,0,0,1,1,1,1,16.67,0,1,1,0,0,0,0,75,1,0,1,1,1,1,100,0,1,0,0,0,-1.28827,0,0,87.29
'University of Fort Hare',1,1,4,1,0,0,0,0,1,1,1,1,8,1,1,1,1,1,1,8,0,0,1,1,0,1,0,1,1,1,1,1,1,1,1,1,1,1,1,0,1,0,0,0,1,1,1,12.63,0,1,1,0,0,0,0,90,1,0,1,1,1,1,65,0,1,1,0,0,-1.34549,0,0,87.27
'Polytechnic University of Milan',1,1,8,0,1,0,0,1,0,0,1,1,10,1,1,1,1,1,1,12,1,1,1,1,1,1,0,1,1,1,1,1,1,1,1,1,1,1,1,1,0,1,1,0,0,1,1,13.93,0,1,1,0,0,1,0,100,1,0,1,1,1,0,8.3,0,1,1,0,0,0.359629,0,0,87.26
'Walter Sisulu University',1,1,10,1,1,0,0,0,1,1,1,1,10,0,1,1,1,1,1,0,0,0,0,1,0,1,0,1,1,1,1,1,1,1,1,1,1,1,1,1,1,1,0,0,1,1,0,19.68,0,1,0,1,0,0,0,90,1,1,1,0,1,0,69.2,0,1,1,0,0.693147,0.223157,7,0,87.25
'Kansas State University',1,1,2,1,0,0,0,1,0,0,0,1,4,0,1,1,1,1,1,12,1,1,1,1,0,1,0,1,1,1,1,1,1,1,1,1,1,1,1,1,0,1,1,0,1,1,1,21,0,1,1,0,0,0,1,90,1,1,1,1,0,1,100,0,1,1,0,0.693147,-0.451447,0,0,87.11
'Charles Darwin University',0,1,5,1,0,0,0,1,0,0,0,1,2,1,1,1,0,1,1,3,1,1,1,0,0,1,0,1,1,1,1,1,1,1,1,1,1,0,1,0,0,1,1,0,1,1,1,18.69,0,1,0,1,0,0,0,100,1,0,1,1,1,1,90.9,0,1,0,0,0,0.915785,5,0,87.07
'University of Lausanne',1,1,7,1,1,1,0,0,0,0,1,0,0,0,1,1,1,1,1,8,1,1,0,0,0,1,0,1,1,1,1,1,1,1,1,1,1,1,1,1,0,0,1,1,1,1,1,21,0,1,1,0,0,0,0,90,1,0,1,1,1,1,100,0,1,1,0,0,0.161607,0,0,87
'Australian Catholic University',1,1,7,1,0,0,0,1,0,0,0,1,10,0,1,1,0,1,1,11,1,1,1,1,0,1,0,1,1,1,1,1,1,1,1,1,1,1,1,1,0,1,1,0,1,1,1,4.86,0,1,1,1,0,1,1,75,1,0,1,1,1,1,64.4,0,1,1,0,0,0.180587,0,0,86.93
'Tshwane University of Technology',1,1,4,1,0,0,0,0,1,1,0,0,0,1,1,1,1,1,1,0,1,1,0,0,0,1,0,1,1,1,1,1,1,1,1,1,1,1,1,1,0,1,1,0,1,1,1,8.2,0,1,1,0,0,0,0,90,1,0,1,1,1,0,100,0,1,0,0,0,-1.37747,0,0,86.93
'Vrije Universiteit Brussel',1,1,4,1,1,1,0,0,0,0,0,1,9,0,1,1,1,1,1,12,1,1,1,1,0,1,0,1,1,1,1,1,1,1,1,1,1,1,1,1,1,0,1,0,0,1,1,21,0,1,1,0,0,1,1,100,1,0,1,1,1,0,97.7,0,1,0,0,0,0.414284,0,0,86.82
'Jawaharlal Nehru University',1,1,10,1,0,0,1,1,1,1,1,0,0,1,1,1,1,1,1,18,0,0,1,0,0,1,0,1,1,1,1,1,1,1,1,1,1,1,1,1,1,0,1,1,1,1,1,15.43,0,1,1,0,0,0,0,75,1,0,0,0,1,1,100,0,1,0,0,0,-0.168926,0,0,86.78
'University of Parma',1,1,4,1,1,0,0,0,0,0,0,1,10,1,1,1,1,1,1,20,1,1,1,1,0,1,0,1,1,1,1,1,1,1,1,1,1,0,1,0,1,0,1,0,1,1,1,17.4,0,1,1,1,0,1,0,100,1,0,1,1,1,1,43.4,0,1,1,0,0,-1.47687,0,0,86.59
'Vilnius Gediminas Technical University',1,1,1,1,1,0,0,0,0,0,1,1,6,1,1,1,1,1,1,5,1,1,0,1,0,1,0,1,1,1,1,1,1,1,1,1,1,1,1,0,0,1,1,0,0,1,1,21,0,1,1,0,0,1,1,90,1,1,1,1,1,0,98.3,0,1,0,0,0.693147,-0.42445,0,0,86.56
'Alagappa University',1,1,14,1,0,0,0,1,1,1,1,1,10,1,1,1,1,1,1,8,0,0,1,1,0,1,0,1,1,1,1,1,1,1,1,1,1,1,1,1,1,0,0,0,1,0,1,20.14,0,1,1,1,0,0,0,75,1,0,1,1,1,0,44.2,0,1,1,0,0,-0.4399,0,0,86.44
'University of Colorado Boulder',1,1,6,1,1,0,0,1,0,0,1,0,0,1,1,1,1,1,1,20,1,1,1,1,0,1,0,1,1,1,1,1,1,1,1,1,1,1,0,0,0,1,0,0,1,1,1,18.88,0,1,0,0,0,0,1,90,1,0,1,0,1,0,92.3,0,1,1,0,0,-0.723038,0,0,86.36
'University of Port Harcourt',1,1,6,1,0,0,0,1,0,0,1,1,4,1,1,1,0,1,1,9,1,1,0,1,0,1,0,1,1,1,1,1,1,1,1,1,1,0,1,0,1,1,0,1,1,1,1,4.67,0,1,1,0,0,0,0,90,1,0,0,0,1,1,73.5,0,1,0,0,0,0.557924,18,0,86.33
'University of Newcastle',1,1,8,1,0,0,0,1,0,0,1,0,1,1,1,1,1,1,1,2,1,1,0,1,1,1,0,1,1,1,1,1,1,1,1,1,1,1,1,0,0,1,1,0,1,1,1,1.61,0,0,1,0,0,1,1,75,1,1,1,1,1,1,78,0,1,1,0,0.693147,-0.456194,0,0,86.29
'University of South Africa',1,1,9,1,0,0,0,0,1,1,1,1,10,1,1,1,1,1,1,1,1,1,0,1,0,1,0,1,1,1,1,1,1,1,1,1,1,1,1,0,0,1,0,0,1,1,1,15.43,0,1,0,0,0,0,0,75,1,0,1,1,0,0,82.9,0,1,0,0,0,2.20203,0,0,86.11
'Durham University',1,1,6,1,0,0,1,1,0,0,1,0,0,1,1,1,0,1,1,0,1,1,0,0,1,1,0,0,1,1,1,1,1,1,1,1,1,1,1,0,0,1,0,0,1,1,1,15.43,0,1,1,1,0,1,1,100,1,0,1,1,1,1,90,0,1,1,0,0,0.352933,0,0,85.96
'Loughborough University',0,1,4,1,0,1,0,0,0,0,0,0,1,0,1,1,0,1,1,0,0,0,0,1,0,1,0,1,1,1,1,1,1,1,1,1,1,1,1,0,1,1,1,0,1,1,1,6.66,0,1,0,0,0,1,0,75,1,1,1,1,1,1,0,1,1,1,0,0.693147,-1.39252,0,0,85.93
'Vita-Salute San Raffaele University',1,1,6,1,0,0,0,1,1,1,1,0,0,0,1,1,0,1,1,0,1,1,0,0,0,1,0,1,1,1,1,1,1,1,1,1,1,1,1,1,0,1,1,0,1,1,1,12.63,0,1,1,1,0,0,0,100,1,0,1,1,1,1,53.1,0,1,1,0,0,-0.387369,28,0,85.92
'Ashoka University',1,1,9,1,1,0,0,1,0,0,1,0,0,1,1,1,1,1,1,9,1,1,0,1,1,1,0,1,1,1,1,1,1,1,1,1,1,1,1,1,1,0,1,0,1,1,1,20.87,0,1,1,0,0,0,1,100,1,0,1,1,1,1,25.6,0,1,0,0,0,-1.20084,81,0,85.87
'Murdoch University',1,1,4,1,0,0,0,1,0,1,1,0,0,0,1,1,0,1,1,4,1,1,1,1,1,1,0,1,1,1,1,1,1,1,1,1,1,1,1,0,0,1,1,0,1,1,1,21,0,1,1,1,0,0,0,75,1,0,1,1,0,1,88.5,0,1,0,0,0,0.155168,4,0,85.83
'Jamia Millia Islamia',1,1,5,1,1,0,0,1,1,1,0,0,0,1,1,1,1,1,1,1,1,1,0,0,1,1,0,1,1,1,1,1,1,1,1,1,1,1,1,0,1,0,1,1,1,1,1,21,0,1,1,0,0,0,0,75,1,0,1,1,1,0,100,0,1,1,0,0,0.115573,82,0,85.82
'University of Tsukuba',1,1,12,1,0,0,0,0,0,0,1,0,1,1,1,1,1,1,1,3,0,1,1,1,0,1,0,1,1,1,1,1,1,1,1,1,1,1,1,1,0,0,1,1,1,1,1,10.5,0,1,1,0,0,0,1,75,1,0,1,1,1,0,38.5,0,1,1,0,0,-1.52235,0,0,85.76
'Tallinn University',1,1,2,1,1,0,0,0,1,1,1,1,10,0,1,1,1,1,1,11,1,1,1,1,0,1,0,1,1,1,1,1,1,1,1,1,1,1,1,0,0,1,1,0,0,1,1,9.98,0,1,1,0,0,0,0,75,1,0,0,1,1,0,98.1,0,1,0,0,0,0.0893123,0,0,85.75
'University of Canberra',1,1,16,1,0,0,0,1,0,0,1,0,0,1,1,1,1,1,1,0,1,1,0,0,0,1,0,0,1,1,1,1,1,1,1,1,1,1,1,0,0,1,1,0,1,1,1,12.63,0,1,1,0,0,0,0,100,1,0,1,1,1,1,82.9,0,1,1,0,0,0.106774,0,0,85.71
'American University in Cairo',1,1,9,1,1,0,0,0,1,1,1,1,3,0,1,1,1,1,1,13,1,1,1,0,1,1,0,1,1,1,1,1,1,1,1,1,1,1,1,1,0,0,1,1,1,1,1,12.52,0,1,1,0,0,0,0,75,1,0,1,1,1,1,82.9,0,1,0,0,0,-0.610745,7,0,85.63
'University of Pretoria',1,1,4,1,0,0,0,0,0,1,1,1,2,1,1,1,1,1,1,5,1,1,0,0,1,1,0,0,1,1,1,1,1,1,1,1,1,1,1,1,1,0,1,0,1,1,1,12.63,0,1,1,0,0,0,0,100,1,0,1,1,1,1,92.9,0,1,0,0,0,-0.758705,0,0,85.44
'Monash University',1,1,2,1,0,0,1,1,1,1,1,0,0,0,1,1,0,1,1,2,1,1,0,1,1,1,0,0,1,1,1,1,1,1,1,1,1,1,1,1,0,1,1,1,1,1,1,11.03,0,1,1,0,0,0,1,90,1,0,1,1,1,1,90.9,0,1,1,0,0,-0.878868,4,0,85.39
'Vidyasagar University',1,1,9,0,0,0,0,1,1,1,1,1,8,1,1,1,1,1,1,11,1,0,1,1,1,1,0,1,1,1,1,1,1,1,1,1,1,0,1,1,1,0,1,1,1,1,1,12,0,1,1,0,0,0,1,75,1,0,1,1,1,0,96.1,0,1,1,0,0,-0.814017,0,0,85.27
'University of Southern Denmark',1,1,6,1,1,0,1,1,1,1,1,1,10,1,1,1,1,1,1,0,1,1,1,1,1,1,0,1,1,1,1,1,1,1,1,1,1,1,1,1,0,1,1,0,1,1,1,21,0,1,1,0,0,0,0,75,1,0,1,1,1,0,2.5,0,1,0,0,0,1.33357,15,0,85.26
'Queen Mary University of London',1,1,6,1,1,0,0,1,0,0,0,0,1,0,1,1,1,1,1,6,1,1,1,0,0,1,0,0,1,1,1,1,1,1,1,1,1,0,1,1,1,0,0,1,1,1,0,10.6,0,1,1,0,0,0,1,90,1,0,1,1,1,1,47.6,0,1,1,0,0,-0.737795,0,0,85.21
'Miguel Hernandez University',1,1,3,1,1,0,0,1,1,1,1,1,8,1,1,1,1,1,1,20,0,0,1,0,0,1,0,1,1,1,1,1,1,1,1,1,1,1,1,0,0,0,1,0,1,1,1,16.48,0,1,1,0,0,0,0,100,1,0,1,1,1,1,64.7,0,1,1,0,0,-0.911342,0,0,85.15
'University of Waikato',1,1,0,1,1,0,0,1,0,0,1,0,0,0,1,1,1,1,1,19,1,1,0,1,0,1,0,0,1,1,1,1,1,1,1,1,1,1,1,1,1,1,0,0,1,1,0,21,0,1,0,0,0,0,1,100,1,1,1,1,1,1,7.8,0,1,1,0,0.693147,-0.697676,0,0,85.1
'NIT Warangal',1,1,9,1,0,0,0,1,1,2,1,1,10,1,1,1,1,1,1,3,1,1,1,1,0,1,0,1,1,1,1,1,1,1,1,1,1,1,1,1,1,0,1,0,1,1,1,8.06,0,1,1,0,0,1,0,75,1,0,1,0,1,1,19.1,0,1,0,0,0,0.741436,0,0,85.07
'University of Engineering and Technology Lahore',1,1,7,1,0,0,1,1,0,0,1,1,2,1,1,1,1,1,1,7,1,1,1,1,0,1,0,1,1,1,1,1,1,1,1,0,1,1,1,0,0,1,1,0,1,0,0,7.46,0,1,1,0,0,0,0,90,1,1,1,0,1,1,76,0,1,0,0,0.693147,-0.679263,27,0,84.92
'University of Sheffield',1,1,2,1,0,0,1,1,0,0,1,0,0,0,1,1,0,1,1,4,1,1,1,1,0,1,0,1,1,1,1,1,1,1,1,1,1,1,1,0,0,1,1,0,1,1,1,11.77,0,1,1,0,0,0,1,100,1,0,1,1,1,1,32.3,0,1,1,0,0,-0.761559,15,0,84.86
'University of Bremen',1,1,3,1,1,0,0,1,1,1,1,1,10,0,1,1,1,1,1,20,1,1,1,1,0,1,0,1,1,1,1,1,1,1,1,1,1,1,1,1,0,0,1,1,1,1,1,16.1,0,1,1,0,0,1,1,90,1,0,1,1,1,0,89.1,0,1,1,0,0,-0.887897,12,0,84.78
'San Francisco de Quito University',1,1,5,1,1,0,0,1,0,0,1,0,0,0,1,1,1,1,1,12,1,1,1,1,1,1,0,1,1,1,1,1,1,1,1,1,1,1,1,0,0,0,1,0,1,1,1,15.43,0,1,0,0,0,0,0,100,1,0,1,1,1,1,95.9,0,1,0,0,0,-0.47625,0,0,84.73
'Massey University',1,1,19,1,0,0,0,1,0,0,1,0,0,0,1,1,1,1,1,0,1,1,0,1,0,1,0,1,1,1,1,1,1,1,1,1,1,1,1,1,0,1,1,0,1,0,1,16.29,0,1,0,0,0,0,0,90,1,0,1,1,1,1,57.1,0,1,0,0,0,-1.03171,0,0,84.72
'University of Bordeaux',1,1,1,1,1,0,0,0,1,0,1,1,6,1,1,1,1,1,1,16,1,1,1,1,0,1,0,1,1,1,1,1,1,1,1,1,1,1,1,1,0,0,1,1,1,1,1,19.85,0,1,1,0,0,0,0,100,1,0,1,1,1,0,15.6,0,1,1,0,0,-1.32268,0,0,84.71
'Aarhus University',1,1,5,1,1,0,0,1,0,0,0,0,0,1,1,1,0,1,1,0,0,0,1,0,0,1,0,1,1,1,1,1,1,1,1,1,1,1,1,1,0,1,1,0,1,1,1,18.16,0,1,1,0,0,1,0,75,1,1,1,1,1,0,16.7,0,1,1,0,0.693147,-0.403883,8,0,84.7
'University of Tasmania',1,1,6,1,0,0,0,1,0,0,1,0,0,0,1,1,0,1,1,0,0,0,0,0,1,1,0,1,1,1,1,1,1,1,1,1,1,1,1,1,0,1,1,0,1,1,1,21,0,1,1,0,0,0,1,75,1,0,1,1,1,1,83.3,0,1,1,0,0,-0.0265138,0,0,84.69
'Barnard College',1,1,1,1,0,0,0,0,1,1,1,0,0,1,1,1,1,1,1,1,1,1,0,0,0,1,0,1,1,1,1,1,1,1,1,1,1,1,1,0,0,1,0,0,1,1,1,21,0,1,1,0,0,0,1,90,1,0,1,1,1,0,28.6,0,1,1,0,0,0.296828,0,0,84.69
'Gujarat University',1,1,8,1,1,0,0,1,0,0,1,1,10,1,1,1,0,1,0,5,0,0,1,0,1,1,0,1,1,1,1,1,1,1,1,1,1,1,1,1,1,0,1,0,1,1,1,7.94,0,1,1,0,0,0,1,75,1,0,1,1,1,0,23.6,0,1,1,0,0,-0.115806,12,0,84.47
'University of Pennsylvania',1,1,6,1,0,0,0,0,0,0,1,1,3,1,1,1,0,1,1,11,1,1,1,0,0,1,0,1,1,1,1,1,1,1,1,1,1,1,1,1,0,0,1,0,1,1,1,21,0,1,0,0,0,0,0,100,1,0,1,1,1,1,100,0,1,1,0,0,-0.372725,0,0,84.45
'Institute of Business Administration Karachi',1,1,5,1,0,0,0,0,1,1,1,1,6,0,1,1,1,1,1,6,1,1,0,0,1,1,0,1,1,1,1,1,1,1,1,1,1,1,1,0,0,1,0,0,1,1,0,5.74,0,1,0,0,0,1,0,75,1,0,1,1,0,0,88.9,0,1,0,0,0,-0.728309,14,0,84.42
'Edith Cowan University',1,1,5,1,0,1,0,1,0,0,1,1,3,0,1,1,0,1,1,7,1,1,1,1,0,1,1,1,1,0,1,1,1,1,1,1,1,1,1,0,0,1,1,1,1,1,1,21,0,1,1,1,0,0,1,100,1,0,1,1,1,1,19.4,0,1,1,0,0,-0.548746,0,0,84.29
'University of Wuerzburg',1,1,6,1,1,0,0,1,1,0,1,1,3,1,1,1,1,1,1,7,1,1,1,1,0,1,0,1,1,1,1,1,1,1,1,1,1,1,1,0,0,0,0,1,1,1,0,7,0,1,1,0,0,1,0,75,1,0,1,0,1,0,73.8,0,1,1,0,0,-0.346413,0,0,84.24
'Kwame Nkrumah University of Science and Technology',1,1,8,1,0,0,0,0,1,1,0,0,0,1,1,1,1,1,1,1,1,1,0,0,1,1,1,1,1,1,1,1,1,1,1,1,1,1,1,0,0,1,1,0,1,1,1,4.83,0,1,1,0,0,0,0,75,1,3,1,0,1,1,35,0,1,0,0,1.38629,2.52291,4,0,84.24
'Lovely Professional University',1,1,3,1,1,0,0,1,1,1,1,1,7,0,0,1,1,1,1,0,1,0,0,1,0,1,0,1,1,1,1,1,1,1,1,1,1,1,1,1,1,1,1,0,1,1,1,20.62,0,1,1,0,0,0,1,90,1,0,1,1,1,1,91.4,0,1,0,0,0,-1.10927,3650,1,84.18
'University of Vigo',1,1,3,1,1,0,1,1,1,1,1,1,10,1,1,1,1,1,1,8,1,1,1,1,0,1,0,1,1,1,1,1,1,1,1,1,1,1,1,0,0,0,1,0,0,1,1,21,0,1,1,0,0,0,0,75,1,0,1,1,1,0,78.9,0,1,1,0,0,-0.0674318,0,0,84.16
'Concordia University',1,1,5,1,1,0,0,1,0,0,1,1,2,1,1,1,1,1,1,7,1,1,0,0,0,1,0,1,1,1,1,1,1,1,1,1,1,1,1,1,0,0,1,0,1,1,1,21,0,1,1,0,0,1,0,75,1,0,1,1,1,1,86.7,0,1,1,0,0,2.40658,5,0,84.16
'University of New South Wales',1,1,5,1,0,1,1,1,0,0,1,1,3,0,0,1,1,1,1,0,1,1,0,0,0,1,0,1,1,1,1,1,1,1,1,1,1,1,1,1,0,1,1,0,1,1,1,17.9,0,1,1,1,1,1,0,100,1,0,1,1,1,1,44.1,0,1,1,0,0,-1.10275,3650,1,84.05
'Bharathiar University',1,1,11,1,1,0,1,1,0,0,1,1,10,1,1,1,1,1,1,20,1,1,1,0,1,1,0,1,1,1,1,1,1,1,1,0,1,1,1,1,1,0,0,1,1,1,0,17.4,0,1,1,1,0,0,0,75,1,0,1,0,1,1,98.4,0,1,1,0,0,2.09158,0,0,83.97
'University of Nairobi',1,1,6,1,0,0,0,1,0,0,1,0,0,1,1,1,0,1,1,6,1,1,0,0,0,1,1,1,1,1,1,1,1,1,1,1,1,1,1,1,0,1,1,0,1,1,1,4.48,0,1,1,1,0,1,0,75,1,0,0,0,1,1,34.6,0,1,0,0,0,0.502527,27,0,83.97
'Central University of Kerala',1,1,11,0,0,0,0,0,0,0,1,1,9,1,1,1,1,1,1,1,1,1,1,0,1,1,1,1,1,1,1,1,1,1,1,1,1,1,1,1,1,0,1,1,1,1,1,15.43,0,1,1,0,0,0,0,75,1,1,1,1,1,1,59.2,0,1,1,0,0.693147,-0.0877803,0,0,83.94
'Technical University of Munich',1,1,7,1,1,0,0,1,1,0,1,1,2,0,1,1,1,1,1,4,1,1,1,1,1,1,0,1,1,1,1,1,1,1,1,1,1,1,1,1,0,0,1,0,0,1,1,16.15,0,0,0,0,0,1,0,100,1,0,1,1,1,0,20.8,0,1,1,0,0,0.747467,0,0,83.9
'Georgetown University',0,1,5,1,0,0,0,0,0,0,1,0,0,1,1,1,1,1,1,12,1,1,1,1,1,1,0,1,1,1,1,1,1,1,1,1,1,1,1,0,0,0,1,0,1,1,1,21,0,1,0,0,0,0,1,75,1,0,1,0,1,1,84.8,0,1,1,0,0,-0.213002,5,0,83.82
'California Polytechnic State University',1,1,3,1,0,0,0,1,0,0,1,1,4,1,1,1,1,1,1,14,1,1,0,1,0,1,0,1,1,1,1,1,1,1,1,1,1,1,1,0,0,0,1,0,1,1,1,17.78,0,1,1,0,0,1,0,100,1,0,1,1,1,1,92.3,0,1,1,0,0,-1.16347,0,0,83.82
'ENS de Lyon',1,1,20,1,1,0,0,1,1,2,1,1,10,1,1,1,1,1,1,0,0,0,0,1,1,1,0,1,1,1,1,1,1,1,1,1,1,1,1,1,1,0,1,1,1,1,1,21,0,1,1,0,0,0,0,75,1,0,1,0,1,0,91.4,0,1,1,0,0,1.92258,0,0,83.8
'Masaryk University',1,1,2,1,1,1,0,0,1,1,1,0,0,1,0,1,1,1,1,16,1,0,0,0,0,1,0,1,1,1,1,1,1,1,1,1,1,1,1,0,0,1,1,0,1,1,1,20.12,0,1,1,0,0,0,0,90,1,0,1,1,1,1,100,0,1,1,0,0,0.286541,3650,1,83.71
'University of San Francisco',1,1,6,1,0,0,0,1,0,0,1,1,8,1,1,1,1,1,1,11,1,1,0,1,0,1,1,1,1,1,1,1,1,1,1,1,1,1,1,0,0,0,1,0,1,1,1,21,0,1,0,0,0,0,0,90,1,0,1,1,1,1,71.9,0,1,1,0,0,0.0927718,0,0,83.64
'Slovak University of Agriculture in Nitra',1,1,8,1,0,0,0,1,1,1,1,1,9,1,1,1,1,1,1,0,1,1,1,1,0,1,0,1,1,1,1,1,1,1,1,0,1,0,1,0,1,1,1,0,1,1,1,21,0,1,1,0,0,0,0,75,1,1,1,0,0,0,54.2,0,1,0,0,0.693147,-0.528528,29,0,83.63
'University of California, Davis',1,1,6,1,0,0,0,1,0,0,0,0,0,0,1,1,1,1,1,0,1,1,0,1,1,1,0,1,1,1,1,1,1,1,1,1,1,1,1,0,0,1,0,0,1,1,0,21,0,1,0,0,0,0,0,100,1,0,1,0,1,1,100,0,1,1,0,0,0.0579683,8,0,83.5
'Technical University of Berlin',1,1,3,1,1,0,0,1,0,0,1,1,9,1,1,1,1,1,1,13,0,0,1,0,0,1,0,1,1,1,1,1,1,1,1,1,1,1,1,1,0,0,0,0,1,1,0,21,0,1,1,0,0,1,0,100,1,0,1,1,1,0,82.4,0,1,1,0,0,-0.968162,4,0,83.47
'Columbia University',1,1,7,1,0,0,0,0,0,0,1,1,6,1,1,1,1,1,1,20,1,1,1,0,1,1,0,1,1,1,1,1,1,1,1,1,1,1,1,0,0,0,0,0,1,1,1,7.02,0,1,1,1,0,0,0,75,1,0,1,0,1,0,98.2,0,1,1,0,0,-1.19599,0,0,83.44
'University of Trieste',1,1,7,1,1,0,0,0,0,0,0,1,6,1,1,1,1,1,1,4,1,1,1,1,1,1,0,1,1,1,1,1,1,1,1,1,1,1,1,1,0,0,1,0,0,1,1,1.3,0,1,1,0,0,0,0,100,1,0,1,1,1,0,96.4,0,1,1,0,0,0.262358,0,0,83.38
'University of Kent',1,1,20,1,0,1,0,1,1,1,1,1,10,1,0,1,1,1,1,0,1,1,1,0,1,1,0,1,1,1,1,1,1,1,1,1,1,1,1,1,0,1,1,0,1,1,1,21,0,1,0,1,0,1,1,90,1,0,1,1,1,1,98.3,0,1,1,0,0,0.254239,3650,1,83.33
'Lingnan University',1,1,8,1,1,0,1,1,1,1,1,1,5,1,1,1,0,1,1,7,1,1,0,0,0,1,0,1,1,1,1,1,1,1,1,1,1,0,1,1,0,0,0,1,1,1,1,17.4,0,1,1,0,0,0,0,100,1,0,1,1,1,1,93.1,0,1,1,0,0,1.49244,0,0,83.32
'Technical University of Kenya',1,1,8,0,0,0,0,0,1,1,1,0,0,1,1,1,1,1,1,4,1,1,1,1,0,1,0,1,1,1,1,1,1,1,1,1,1,0,1,0,1,0,1,0,1,1,1,21,0,1,1,0,0,1,0,75,1,0,1,1,1,1,100,0,1,0,0,0,-0.792083,0,0,83.2
'University of Burgundy',1,1,10,1,1,0,0,1,0,0,1,1,10,0,1,1,1,1,0,15,1,1,1,1,0,1,0,1,1,1,1,1,1,1,1,1,1,0,1,1,1,0,1,0,0,1,1,21,0,1,1,0,0,0,1,75,1,0,1,1,1,0,76.9,0,1,1,0,0,0.579906,25,0,82.93
'University of Auckland',0,1,2,1,0,0,0,1,1,0,1,0,0,1,0,1,1,1,1,6,0,0,0,1,0,1,0,1,1,1,1,1,1,1,1,1,1,1,1,1,0,1,1,0,1,1,1,8.84,0,0,0,1,0,0,0,100,1,0,1,1,1,1,83.3,0,1,1,0,0,-0.151165,3650,1,82.9
'Semmelweis University',1,1,6,1,1,0,0,1,0,0,1,1,10,0,1,1,1,1,1,3,1,1,1,0,0,1,0,1,1,1,1,1,1,1,1,0,1,1,1,0,1,0,1,1,1,1,1,15.87,0,1,1,0,0,0,0,90,1,2,1,1,1,1,16.2,0,1,0,0,1.09861,1.02333,46,0,82.85
'University of Tokyo',1,1,7,1,1,0,0,0,0,0,1,1,2,1,1,1,1,1,1,6,1,1,0,1,0,1,0,1,1,1,1,1,1,1,1,1,1,1,1,0,0,0,0,1,1,1,1,21,0,1,1,0,0,0,0,75,1,4,0,1,1,0,56.6,0,1,0,0,1.60944,-0.127531,0,0,82.8
'University of Marburg',1,1,6,1,1,0,0,0,0,0,0,1,10,0,1,1,1,1,1,6,1,1,1,0,0,1,0,1,1,1,1,1,1,1,1,1,1,1,1,1,0,0,1,0,0,1,1,12.63,0,1,1,0,0,1,1,90,1,0,1,1,1,0,2.3,0,1,1,0,0,0.037209,1,0,82.78
'Leipzig University',1,1,5,1,1,0,0,1,1,1,1,1,10,1,1,1,0,1,1,1,1,1,1,0,1,1,0,1,1,1,1,1,1,1,1,1,1,1,1,1,0,0,0,1,1,1,0,12.64,0,1,1,0,0,1,0,100,1,0,1,1,1,0,100,0,1,1,0,0,0.790146,0,0,82.77
'Scuola Normale Superiore di Pisa',1,1,4,1,1,0,0,0,0,0,1,0,0,0,1,1,0,1,1,9,0,0,0,1,0,1,0,1,1,1,1,1,1,1,1,0,1,1,1,1,0,1,0,1,1,1,0,14,0,1,1,0,0,0,0,75,1,0,0,0,1,0,100,0,1,1,0,0,-1.20889,0,0,82.75
'University of Venda',1,1,8,1,0,0,0,0,0,0,1,0,1,1,1,1,1,1,1,20,1,1,0,1,1,1,0,1,1,1,1,1,1,1,1,1,1,1,1,0,1,0,1,0,1,1,1,5.74,0,1,1,0,0,0,1,90,1,0,1,0,1,1,30.7,0,1,0,0,0,1.99811,0,0,82.71
'University of Victoria',1,1,6,1,0,0,0,1,0,0,0,0,1,0,1,1,1,1,1,0,1,1,0,0,0,1,0,1,1,1,1,1,1,0,1,1,1,0,1,1,0,1,0,0,1,1,1,15.43,0,1,1,1,0,0,0,100,1,0,1,1,1,1,100,0,1,1,0,0,-0.634579,0,0,82.63
'Northwestern University',1,1,6,1,0,0,0,1,0,0,1,0,0,1,1,1,1,1,1,0,1,1,0,1,1,1,0,1,1,1,1,1,1,1,1,1,1,1,1,1,0,0,1,0,1,1,1,13.19,0,1,1,1,0,1,0,75,1,0,1,1,1,1,97.2,0,1,1,0,0,-0.305604,23,0,82.59
'University of Bern',1,1,7,1,1,0,0,1,1,0,1,1,2,1,1,1,1,1,1,2,1,1,1,1,0,1,0,1,1,1,1,1,1,1,1,1,1,1,1,1,0,0,1,0,1,1,1,5.74,0,1,1,0,0,1,1,75,1,0,0,1,1,1,79.2,0,1,0,0,0,4.59436,0,0,82.48
'University of Muenster',1,1,2,1,1,0,0,1,0,0,1,0,1,0,1,1,1,1,1,1,1,1,1,1,0,1,0,1,0,1,1,1,1,1,1,1,1,1,1,1,0,0,1,1,1,1,1,21,0,1,1,0,0,0,0,100,1,0,1,1,1,0,94.1,0,1,1,0,0,-0.601029,1,0,82.48
'Seoul National University',1,1,20,1,0,0,0,0,0,0,1,1,7,1,1,1,1,1,1,1,1,1,1,0,1,1,0,1,1,1,1,1,1,1,1,1,0,1,1,0,1,0,1,1,1,1,1,15.43,0,1,1,0,0,0,0,75,1,0,0,0,1,1,52.9,0,1,0,0,0,1.50287,0,0,82.44
'Tohoku University',1,1,7,1,1,0,0,0,0,0,0,1,8,1,1,1,1,1,1,7,1,1,1,0,0,1,0,1,1,1,1,1,1,1,0,1,1,1,1,0,0,0,0,1,0,1,1,21,0,1,1,1,0,0,0,100,1,1,0,1,1,0,59.2,0,1,0,0,0.693147,-0.729928,0,0,82.41
'University of Galway',0,1,8,1,0,1,1,1,1,1,1,1,8,0,1,1,0,1,1,0,1,0,0,1,0,1,0,0,1,1,1,1,1,1,1,1,1,1,1,0,0,1,0,0,1,1,0,6.03,0,0,0,0,0,0,1,75,1,0,1,1,1,0,78,0,1,1,0,0,0.394642,7,0,82.39
'ETH Zurich',1,1,7,1,1,0,0,0,0,0,1,1,6,1,1,1,1,1,1,8,1,1,1,0,0,1,0,1,1,1,1,1,1,1,1,1,1,1,1,1,0,0,0,0,1,1,0,21,0,1,0,0,0,1,1,100,1,0,1,0,1,0,27.6,0,1,1,0,0,1.68421,0,0,82.21
'Technical University of Darmstadt',1,1,4,1,1,0,1,1,0,0,1,1,10,0,1,1,1,1,1,1,1,1,1,0,0,1,0,0,1,1,1,1,1,1,1,1,1,1,1,1,0,0,0,1,1,1,1,12.79,0,1,1,0,0,0,0,100,1,0,0,1,1,0,12,0,1,1,0,0,-0.796235,0,0,82.11
'Indian Institute of Technology BHU Varanasi',1,1,11,0,1,0,0,1,0,0,1,1,10,1,1,1,1,1,1,9,1,1,1,1,1,1,1,1,1,1,1,1,1,1,1,0,1,1,1,1,1,0,0,1,1,1,1,15.43,0,1,0,0,0,0,0,75,1,1,1,0,1,1,84.1,0,1,1,0,0.693147,0.292854,18,0,82.1
'Moi University',1,1,7,1,0,0,0,0,1,0,1,1,2,1,1,1,1,1,1,20,0,1,1,0,1,1,0,1,1,1,1,1,1,1,1,1,1,1,1,1,0,0,1,0,1,1,1,13.58,0,1,1,0,0,0,0,90,1,0,1,0,1,0,38.5,0,1,0,0,0,0.159626,0,0,82.07
'York University',1,1,3,1,0,0,0,1,1,1,0,1,4,0,1,1,0,1,1,0,1,1,0,0,1,1,0,1,1,1,1,1,1,1,1,1,1,1,1,0,0,1,1,0,0,1,1,15.43,0,1,1,0,0,1,1,90,1,0,1,1,1,1,14.6,0,1,1,0,0,0.345511,11,0,82.03
'University of Regensburg',1,1,3,1,1,0,0,1,0,0,1,0,1,0,1,1,1,1,1,3,1,1,1,0,1,1,0,1,0,1,1,1,1,1,1,1,1,1,1,1,0,0,1,0,0,1,1,21,0,1,1,0,0,1,0,75,1,0,1,1,1,0,14.3,0,1,1,0,0,-0.704088,1,0,81.96
'Georgia Institute of Technology',1,1,7,1,0,1,0,1,1,1,0,0,0,1,1,1,1,1,1,0,1,1,0,0,1,1,0,1,1,1,1,1,1,1,1,1,1,0,1,1,0,0,1,0,1,1,1,21,0,1,1,1,0,0,0,75,1,1,0,1,1,1,85.7,0,1,1,0,0.693147,-0.275565,15,0,81.92
'FAST National University Pakistan',1,1,13,1,0,0,0,1,1,1,1,0,0,1,1,1,1,1,1,0,0,0,0,1,1,1,1,1,1,1,1,1,1,1,1,1,1,1,1,0,1,1,1,0,1,1,1,21,0,1,1,0,0,1,0,75,1,7,1,0,1,0,20.6,0,0,0,0,2.07944,-0.0146189,134,0,81.84
'University of Cape Town',1,1,1,1,0,0,1,1,0,0,1,0,0,1,1,1,1,1,1,8,1,1,0,1,1,1,0,1,1,1,1,1,1,1,1,1,1,1,1,0,0,1,0,0,1,1,0,2.73,0,1,1,1,0,0,0,75,1,0,1,1,1,0,100,0,1,0,0,0,2.96384,0,0,81.82
'Auckland University of Technology',1,1,4,1,0,0,0,1,0,0,1,1,7,0,0,1,0,1,1,4,1,0,0,1,0,1,0,1,1,1,1,1,1,1,1,1,1,1,1,1,0,1,1,1,1,1,1,20.37,0,1,0,0,0,1,0,90,1,0,1,1,1,1,94.3,0,1,0,0,0,-0.954311,3650,1,81.81
'Hong Kong University of Science and Technology',1,1,2,1,1,0,1,1,1,0,1,1,10,0,1,1,1,1,1,17,1,1,1,1,1,1,0,1,1,1,1,1,1,1,1,0,1,1,1,1,0,0,0,1,1,1,1,15.23,0,1,1,0,0,0,1,90,1,0,1,1,1,1,100,0,1,1,0,0,-0.445184,0,0,81.8
'University of Queensland',1,1,4,1,0,0,1,1,1,1,0,0,0,0,0,1,1,1,1,1,1,1,0,1,0,1,0,1,1,1,1,1,1,1,1,1,1,1,1,1,0,1,1,0,1,1,1,11.53,0,1,1,0,0,0,1,100,1,1,1,1,1,1,94.4,0,1,1,0,0.693147,-0.36071,3650,1,81.79
'PSL University',1,1,6,1,1,0,0,1,1,0,1,1,7,1,1,1,1,1,1,1,1,1,1,0,0,1,0,1,1,1,1,1,1,1,1,0,1,1,1,0,0,0,0,1,1,1,1,21,0,1,1,0,0,0,1,75,1,0,1,0,1,0,95.3,0,1,1,0,0,-0.210375,13,0,81.78
'Indiana University Bloomington',0,1,9,1,0,0,0,1,1,1,1,1,2,1,1,1,1,1,1,0,1,1,0,1,0,1,0,1,1,1,1,1,1,1,1,1,1,1,0,0,0,1,0,0,1,0,0,11.22,0,1,0,1,0,1,0,100,1,0,1,1,1,1,61.9,0,1,1,0,0,0.290613,56,0,81.77
'University of Kerala',0,1,13,1,0,0,1,1,1,1,1,1,3,0,1,1,1,1,1,5,1,1,1,0,0,1,0,1,1,1,1,1,1,1,1,0,1,1,1,1,1,0,0,1,1,0,1,12.63,0,1,0,0,0,0,0,75,1,2,1,0,0,0,95.9,0,1,0,0,1.09861,0.00574895,4,0,81.76
'University of Utah',1,1,8,1,0,0,0,1,0,0,1,1,3,1,1,1,1,1,1,1,0,0,1,0,1,1,0,1,1,1,1,1,1,1,1,1,1,0,1,0,0,0,1,0,1,1,1,13.47,0,1,0,1,0,0,1,75,1,0,1,1,1,0,68.8,0,1,1,0,0,0.278805,6,0,81.76
'IIIT Gwalior',1,1,9,1,0,0,0,1,0,0,0,1,10,1,1,1,1,1,1,1,1,1,1,1,1,1,0,1,1,1,1,1,1,1,1,0,1,0,1,0,1,0,1,1,1,1,1,15.43,0,1,1,0,0,1,0,75,1,0,0,0,1,1,100,0,1,0,0,0,-0.0529105,0,0,81.74
'University of Salzburg',1,1,4,1,1,1,0,0,1,1,1,1,5,1,1,1,0,1,1,12,1,1,1,0,0,1,0,1,1,1,1,1,1,1,1,1,1,1,1,1,0,0,0,0,1,1,0,9.07,0,1,1,0,0,1,0,90,1,0,1,1,1,0,84.2,0,1,0,0,0,0.247934,12,0,81.69
'University of Rochester',1,1,6,1,0,0,0,1,0,0,1,0,0,0,0,1,1,1,1,0,1,1,0,0,1,1,0,1,1,1,1,1,1,1,1,1,1,1,1,0,0,1,1,0,1,1,1,21,0,1,1,1,0,0,0,75,1,0,1,1,1,1,86.4,0,1,1,0,0,-0.888147,3650,1,81.68
'University of Girona',1,1,5,1,0,0,0,0,1,1,1,0,0,1,1,1,1,1,1,5,1,1,1,1,0,1,0,1,1,1,1,1,1,1,1,0,1,1,1,1,0,0,1,0,0,1,1,15.24,0,1,1,0,0,0,0,75,1,0,1,1,0,0,36.4,0,1,1,0,0,-1.43119,10,0,81.67
'Dibrugarh University',1,1,9,0,0,0,0,0,0,0,1,1,10,1,1,1,1,1,1,0,0,0,0,0,0,1,0,1,1,1,1,1,1,1,1,1,1,1,1,1,0,1,1,1,1,1,1,21,0,1,0,0,0,0,0,75,1,0,1,1,1,1,100,0,1,1,0,0,-0.139433,742,0,81.65
'Maharaja Sayajirao University of Baroda',1,1,11,1,0,0,0,1,1,1,1,1,2,1,1,1,1,1,1,5,0,0,1,0,1,1,1,1,1,1,1,1,1,1,1,0,1,1,1,1,0,0,1,1,1,1,1,21,0,1,1,0,0,0,0,75,1,4,1,1,1,0,15.3,0,1,0,0,1.60944,-0.446418,4,0,81.63
'Rutgers University',0,1,4,1,0,0,0,1,1,1,1,1,10,1,1,1,1,1,1,14,1,1,1,1,0,1,0,1,1,1,1,1,1,1,1,1,1,0,1,0,0,0,1,0,1,1,1,9.74,0,1,0,0,0,0,0,90,1,0,0,1,1,1,100,0,1,1,0,0,3.57415,0,0,81.61
'University of Oxford',1,1,3,1,0,0,0,0,0,0,1,0,0,0,1,1,1,1,1,9,0,0,1,1,0,1,0,1,1,1,1,1,1,1,1,1,1,0,1,0,0,0,0,0,1,1,1,5.47,0,1,1,0,0,1,0,100,1,0,1,1,1,1,90.9,0,1,1,0,0,-0.794538,1,0,81.58
'University of Alberta',0,1,5,1,1,0,0,1,0,0,1,1,8,0,0,1,1,1,1,1,1,1,0,0,1,1,0,1,1,1,1,1,1,1,1,1,1,1,1,1,0,1,0,0,1,1,1,14.45,0,1,0,1,0,0,1,90,1,2,1,1,1,1,50,0,1,0,0,1.09861,0.342818,3650,1,81.52
'Sri Lanka Institute of Information Technology',1,1,1,1,0,0,0,1,1,1,1,1,3,0,0,1,0,1,1,0,1,1,0,1,0,1,0,1,1,1,1,1,1,1,1,1,1,1,1,1,1,1,1,1,1,1,1,21,0,1,0,0,0,1,1,75,1,0,1,1,1,1,82.2,0,1,1,0,0,-1.01981,3650,1,81.51
'VSB - Technical University of Ostrava',1,1,7,1,0,1,0,1,1,1,1,1,6,1,1,1,1,1,1,0,1,1,0,1,0,1,0,1,1,1,1,1,1,1,1,1,1,1,1,1,0,0,1,0,1,1,1,16.57,0,1,1,0,0,0,0,75,1,0,1,0,1,0,94.1,0,1,0,0,0,0.387036,0,0,81.48
'Air University',1,1,9,0,0,0,0,1,1,1,1,1,10,1,1,1,1,1,0,11,1,1,1,1,0,1,0,1,1,1,1,1,1,1,1,1,1,1,1,1,0,1,1,0,1,1,1,6.38,0,1,1,0,0,1,0,75,1,0,1,0,1,1,75.9,0,1,0,0,0,0.180261,270,0,81.45
'University of Lucknow',1,1,13,1,1,1,0,1,1,1,1,0,0,1,1,1,1,1,1,2,0,0,1,1,0,1,0,1,1,1,1,1,1,1,1,1,1,1,1,1,1,0,1,0,1,1,1,12.63,0,1,1,0,0,0,0,75,1,0,1,0,0,1,100,0,1,0,0,0,0.031331,453,0,81.4
'Durban University of Technology',1,1,10,1,0,0,0,1,0,0,1,0,0,1,1,1,1,1,1,6,1,1,1,1,1,1,1,1,1,1,1,1,1,1,1,1,1,1,1,0,0,0,1,0,1,1,1,4.48,0,1,1,1,0,0,0,90,1,2,1,1,0,0,23.1,0,1,0,0,1.09861,1.53796,7,0,81.36
'Pepperdine University',1,1,5,1,0,0,0,1,1,1,0,0,1,1,1,1,1,1,1,1,1,1,0,0,1,0,1,1,1,1,1,1,1,1,1,1,1,0,1,0,0,0,1,0,1,1,1,21,0,0,0,0,0,0,1,75,1,0,1,1,1,1,78.6,0,1,1,0,0,-0.0103956,1,0,81.31
'Denison University',1,1,6,1,0,0,0,0,1,1,1,0,0,1,1,1,1,1,1,6,1,1,1,1,1,1,0,1,1,1,1,1,1,1,1,1,1,1,0,0,0,0,1,0,0,1,1,8.36,0,1,0,1,0,0,0,75,1,0,1,1,1,1,97.7,0,1,0,0,0,-0.00293772,1,0,81.3
'Samarkand State University',1,1,8,1,1,0,1,1,1,2,1,1,10,1,1,1,0,1,1,0,1,1,1,0,0,1,0,1,1,1,1,1,1,1,1,1,1,0,1,0,1,0,1,0,1,1,1,14.22,0,1,0,0,0,1,0,75,1,2,1,1,1,1,94.1,0,1,0,0,1.09861,0.139851,3,0,81.29
'Estonian University of Life Sciences',1,1,4,1,1,0,0,0,0,0,1,1,4,0,1,1,1,1,1,20,1,1,1,1,1,1,0,1,1,1,1,1,1,1,1,1,1,0,1,0,0,0,1,1,0,1,1,15.43,0,1,1,0,0,0,0,75,1,0,1,0,1,1,82.4,0,1,1,0,0,-0.299413,11,0,81.28
'Cardiff University',1,1,6,1,1,0,0,1,1,1,1,1,3,1,1,1,0,0,1,0,0,1,0,1,0,1,0,1,1,1,1,1,1,1,1,1,1,1,1,1,1,0,1,0,1,1,1,18.73,0,1,0,1,0,0,0,90,1,0,1,1,1,1,60,0,1,1,0,0,-1.02054,0,0,81.13
'SGH Warsaw School of Economics',1,1,4,1,1,0,0,1,1,1,1,0,0,1,1,1,1,1,1,0,1,1,0,1,0,1,0,1,1,1,1,1,1,1,1,0,1,1,1,1,0,0,1,1,1,1,1,13.78,0,1,0,0,0,0,0,100,1,0,1,0,1,0,75.8,0,1,1,0,0,-0.200709,0,0,81.07
'Autonomous Technological Institute of Mexico',1,1,5,1,0,1,1,1,1,1,1,0,0,1,1,1,1,1,1,1,0,0,0,0,0,1,0,1,1,1,1,1,1,1,1,0,1,1,1,0,1,0,1,0,1,1,1,3.72,0,1,1,1,0,0,0,75,1,0,1,0,1,1,88.9,0,1,0,0,0,0.169583,36,0,81.05
'Michigan State University',1,1,3,1,0,0,0,0,0,0,1,0,0,1,1,1,1,1,1,0,0,0,0,1,0,1,0,1,1,1,1,1,1,1,1,1,1,1,1,1,0,0,1,1,1,1,1,15.43,0,1,1,0,0,0,0,75,1,0,0,0,1,1,78.3,0,1,1,0,0,-0.406285,13,0,81.03
'SRM Institute of Science and Technology',1,1,9,1,0,1,0,1,1,1,1,1,10,1,0,1,1,1,1,0,1,1,0,1,0,1,0,1,1,1,1,1,1,1,1,1,1,0,1,1,1,1,0,0,1,1,0,1,0,1,1,0,1,1,0,90,1,0,1,1,1,1,45.7,0,1,1,0,0,-0.0139671,3650,1,81.02
'Texas Tech University',1,1,3,1,0,1,0,1,0,0,1,0,0,0,1,1,1,1,1,2,0,0,0,1,1,1,0,1,1,1,1,1,1,1,1,1,1,1,1,0,0,1,0,0,1,1,0,1.66,0,1,1,0,0,1,0,100,1,2,1,1,1,0,97.8,0,1,1,0,1.09861,0.403724,106,0,81.01
'University of Luxembourg',1,1,4,1,1,0,0,1,0,0,1,0,0,1,1,1,1,1,1,1,1,1,1,1,0,1,0,1,1,1,1,1,1,1,1,1,1,1,1,0,0,0,0,0,1,1,1,5.04,0,1,1,0,0,1,0,100,1,1,0,1,0,0,47.9,0,1,1,0,0.693147,0.140753,1,0,80.98
'Indian Institute of Technology Tirupati',1,1,10,0,0,0,0,0,1,1,1,1,6,1,1,1,1,1,1,20,1,1,1,1,0,1,0,1,1,1,1,1,1,1,1,1,1,1,1,1,1,0,1,0,1,1,1,18.24,0,1,1,0,0,0,0,75,1,0,1,1,1,1,100,0,1,0,0,0,-0.906569,101,0,80.95
'Chalmers University of Technology',1,1,3,0,1,0,0,0,1,1,1,1,7,1,1,1,1,1,0,6,1,0,1,0,0,1,0,1,1,1,1,1,1,0,1,0,1,1,1,1,0,1,1,0,0,1,1,21,0,1,0,0,0,0,0,90,1,0,1,1,1,1,41.4,0,1,1,0,0,-0.0522704,0,0,80.9
'La Trobe University',1,1,7,1,0,0,0,1,1,1,1,0,0,0,1,1,1,1,1,0,0,0,0,0,0,1,0,1,1,1,1,1,1,1,1,1,1,1,1,0,0,1,1,1,1,1,1,15.52,0,1,1,0,0,1,1,75,1,8,1,1,1,0,22.2,0,1,1,0,2.19722,0.0168291,368,0,80.89
'University of Delhi',1,1,11,1,1,0,0,1,0,0,1,1,10,1,1,1,1,1,1,2,1,1,1,1,0,1,1,1,1,1,1,1,1,1,1,1,1,1,1,1,0,0,0,1,1,1,0,9.59,0,1,0,0,0,0,0,75,1,0,0,0,1,0,34.8,0,1,0,0,0,-0.655311,0,0,80.89
'NED University of Engineering and Technology',1,1,8,1,0,0,0,1,1,0,0,1,4,1,1,1,1,1,1,3,0,0,0,1,1,1,0,1,1,1,1,1,1,1,1,1,1,1,1,1,0,0,0,0,1,1,1,12.63,0,1,1,0,0,1,0,75,1,0,1,0,1,1,37.1,0,1,0,0,0,0.644648,0,0,80.88
'Westminster International University in Tashkent',1,1,9,0,0,0,0,1,1,1,1,1,10,0,1,1,0,1,1,4,1,1,1,1,1,1,0,1,1,1,1,1,1,1,0,1,1,1,1,1,1,1,0,0,1,1,0,12.63,0,1,1,0,1,0,0,90,1,0,1,1,1,1,32.4,0,1,0,0,0,2.21786,0,0,80.86
'University of Massachusetts Amherst',1,1,3,1,0,0,0,1,0,0,1,1,5,1,1,1,1,1,1,20,1,1,0,0,1,1,0,1,1,1,1,1,1,1,1,1,1,1,1,0,0,0,0,0,1,1,1,18.26,0,1,1,0,0,0,0,90,1,1,1,0,1,1,100,0,1,1,0,0.693147,0.28647,0,0,80.85
'Louisiana State University',1,1,5,1,0,0,0,1,1,1,1,0,0,1,1,1,1,1,1,20,1,1,1,1,1,1,0,1,1,1,1,1,1,1,1,1,0,1,0,0,0,0,1,0,1,1,1,16.3,0,1,1,1,0,0,0,90,1,0,0,1,1,1,100,0,1,1,0,0,0.68961,0,0,80.84
'Kyoto University',1,1,4,1,1,0,0,0,0,0,1,0,1,1,1,1,0,1,1,5,1,1,1,0,0,1,0,1,1,1,1,1,1,1,0,1,1,1,1,0,0,0,1,1,1,1,1,18.77,0,1,1,0,0,0,1,90,1,0,1,1,1,0,76.7,0,1,0,0,0,-1.82115,0,0,80.81
'University of the Western Cape',1,1,5,0,0,0,0,0,0,0,1,1,3,1,0,1,1,1,1,0,0,0,0,0,0,1,0,1,1,1,1,1,1,1,1,1,1,1,1,1,0,1,1,1,1,1,1,8.19,0,1,1,0,0,0,1,90,1,0,1,1,1,1,100,0,1,0,0,0,-0.752674,3650,1,80.79
'Adam Mickiewicz University',1,1,7,1,1,0,0,1,0,0,1,0,1,0,1,1,1,1,1,5,1,1,1,0,0,1,0,1,1,1,1,1,1,1,1,0,0,0,1,1,0,0,1,0,1,1,1,15.95,0,1,1,0,0,0,0,75,1,0,1,1,1,0,68.8,0,1,1,0,0,-1.18542,0,0,80.79
'Universite libre de Bruxelles',1,1,7,1,0,1,0,0,0,0,1,1,2,0,1,1,1,1,1,1,1,1,0,0,0,1,0,1,1,1,1,1,1,0,1,1,1,1,1,1,1,0,0,0,1,0,1,20.5,0,1,1,0,0,0,0,75,1,0,1,1,1,0,46.4,0,1,1,0,0,-0.49894,0,0,80.75
'University of Poitiers',1,1,9,1,1,0,0,0,0,0,1,0,0,0,1,1,1,1,1,0,0,0,0,1,1,1,1,0,1,1,1,1,1,1,1,1,1,1,1,1,0,0,0,1,0,1,0,13.55,0,1,0,0,0,0,0,90,1,0,1,1,1,0,90.9,0,1,1,0,0,-0.377694,0,0,80.59
'Obuda University',1,1,7,1,1,1,1,1,0,0,1,1,4,0,0,1,1,1,1,12,1,1,0,0,0,1,0,1,1,1,1,1,1,1,1,0,1,1,1,0,1,1,1,0,0,1,1,1.14,0,1,1,1,0,0,0,90,1,0,0,0,1,0,17.4,0,1,1,0,0,0.536615,3650,1,80.57
'Victoria University',1,1,11,1,0,0,0,1,1,1,1,1,2,1,1,1,0,1,1,0,1,0,0,0,1,1,0,0,1,0,1,1,1,1,1,1,1,1,1,1,0,1,1,1,1,1,1,15.13,0,1,0,1,0,0,0,90,1,0,1,1,1,1,82.8,0,1,1,0,0,-0.107008,8,0,80.49
'Yale University',1,1,4,1,0,0,0,0,0,0,1,0,0,0,1,1,1,1,0,5,1,1,1,0,0,1,0,1,1,1,1,1,1,1,1,1,1,1,1,0,0,0,0,0,1,1,0,21,0,1,1,0,0,0,0,100,1,0,1,1,1,0,30.8,0,1,1,0,0,-1.41559,5,0,80.36
'National University of Singapore',1,1,8,1,0,1,0,0,0,0,0,0,0,1,1,1,1,1,1,2,0,0,0,0,0,1,0,1,1,1,1,1,1,1,1,1,1,0,1,0,0,0,1,0,1,1,1,12.63,0,1,1,0,0,0,0,75,1,0,0,1,1,1,51.6,0,1,0,0,0,0.106244,17,0,80.31
'University of Johannesburg',1,1,8,1,0,0,0,0,0,0,1,0,0,0,1,1,1,1,1,0,0,0,0,1,0,1,0,1,1,1,1,1,1,1,1,1,1,1,1,1,0,0,1,0,1,1,1,15.43,0,1,1,1,0,0,0,90,1,1,1,1,1,1,39.1,0,1,0,0,0.693147,-0.0731826,4,0,80.31
'Sofia Medical University',1,1,6,1,1,0,0,1,1,1,1,1,8,1,1,1,0,1,1,3,1,1,1,0,0,1,0,1,1,1,1,1,1,1,1,0,1,1,1,0,0,0,0,0,1,1,1,11.9,0,1,1,0,0,1,0,90,1,0,1,1,1,1,54.2,0,1,0,0,0,0.028406,20,0,80.3
'University of Pecs',1,1,9,1,1,0,0,1,1,1,0,1,7,0,1,1,1,1,0,0,1,1,1,0,0,1,1,1,1,1,1,1,1,1,1,0,1,1,1,1,1,1,0,0,0,1,0,5.02,0,1,0,1,0,1,1,75,1,0,1,0,1,0,9.2,0,1,0,0,0,0.0905662,36,0,80.3
'University of Southern California',1,1,5,1,0,0,0,0,0,0,1,0,0,1,1,1,1,1,1,2,1,1,0,0,0,1,1,1,1,1,1,1,1,1,1,1,1,1,0,0,0,0,1,0,1,1,1,21,0,1,1,0,0,1,1,90,1,0,1,1,1,1,95,0,1,1,0,0,-0.323005,5,0,80.26
'University of the Sunshine Coast',1,1,4,1,0,0,0,1,0,0,0,0,0,0,0,1,1,1,1,12,1,1,0,0,0,1,0,0,1,1,1,1,1,1,1,1,1,0,1,0,0,1,1,1,1,1,1,18.88,0,1,1,0,0,1,0,100,1,0,1,1,0,1,37.5,0,1,1,0,0,0.85957,3650,1,80.23
'University of Miskolc',1,1,8,1,1,0,1,1,1,1,1,1,10,0,0,1,1,1,1,0,1,1,0,1,1,1,0,1,1,1,1,1,1,1,1,0,1,1,1,0,1,1,1,0,1,1,1,5.87,0,1,1,0,0,0,1,90,1,0,1,0,1,1,22,0,1,1,0,0,0.787943,3650,1,80.11
'Howard University',0,1,3,1,0,0,0,1,1,1,1,0,0,1,1,1,1,1,1,18,1,1,0,1,1,1,0,1,1,1,1,1,1,1,1,1,1,1,1,0,0,0,1,0,1,1,1,1,0,1,0,0,0,0,0,75,1,0,1,1,1,1,95.7,0,1,1,0,0,0.244001,0,0,79.99
'University of Jaen',1,1,5,1,1,0,0,0,0,0,0,1,9,0,1,1,1,1,1,20,1,1,1,0,0,1,0,1,1,1,1,1,1,1,1,1,1,0,1,1,0,0,1,1,0,1,1,9.56,0,1,1,0,0,0,0,100,1,0,0,0,1,0,100,0,1,0,0,0,0.475171,46,0,79.98
'University of South-Eastern Norway',0,1,0,1,1,0,0,0,1,1,0,1,6,1,1,1,1,1,0,1,1,1,1,0,0,1,0,1,1,1,1,1,1,1,1,1,1,1,1,1,0,0,1,0,0,1,1,15.33,0,1,0,0,0,1,1,90,1,0,1,1,1,1,87.5,0,1,1,0,0,0.830642,4,0,79.97
'University of Technology Sydney',1,1,3,1,0,0,1,1,0,0,1,0,0,1,0,1,0,1,1,0,1,1,0,0,1,1,0,1,1,1,1,1,1,1,1,1,1,1,1,1,0,1,1,0,1,1,1,21,0,1,1,0,0,0,0,100,1,0,1,1,1,1,72.4,0,1,1,0,0,-0.0452522,3650,1,79.96
'Stanford University',0,1,4,1,0,0,0,0,1,1,1,0,0,0,1,1,0,1,1,11,1,1,1,1,1,1,0,1,1,1,1,1,1,1,1,1,1,1,1,0,0,0,0,0,1,1,0,18.88,0,1,0,0,0,0,0,100,1,0,1,1,1,1,100,0,1,1,0,0,-0.0402272,5,0,79.9
'University of KwaZulu-Natal',1,1,20,1,0,0,0,0,0,0,0,1,3,1,0,1,1,1,1,3,1,1,0,0,0,1,0,1,1,1,1,1,1,1,1,1,1,1,1,0,0,1,1,0,1,1,1,5.74,0,1,1,1,0,1,0,90,1,2,1,0,1,0,44.4,0,1,1,0,1.09861,0.759317,3650,1,79.87
'Indian Institute of Technology Ropar',1,1,6,0,0,0,0,1,0,0,1,1,10,1,1,1,1,1,1,20,1,1,1,1,1,1,0,1,1,1,1,1,1,1,1,1,1,1,1,1,0,0,0,0,1,1,1,21,0,1,1,0,0,1,0,75,1,1,1,0,1,1,97.4,0,1,1,0,0.693147,-0.144322,5,0,79.86
'San Jose State University',1,1,5,1,0,0,0,1,1,1,0,1,2,1,1,1,1,1,1,0,1,1,0,0,0,1,0,1,1,1,1,1,1,1,1,1,1,1,1,0,0,0,1,0,0,1,1,19.8,0,1,1,0,0,0,0,75,1,0,1,0,0,1,87.5,0,1,1,0,0,1.17126,0,0,79.84
'Lithuanian University of Health Sciences',1,1,5,1,1,0,0,0,1,1,0,0,0,0,1,1,0,1,1,4,1,0,0,0,1,1,0,1,1,1,1,1,1,1,1,1,1,0,1,0,0,0,1,0,1,1,1,21,0,1,1,0,0,0,0,75,1,0,1,1,1,1,77.8,0,1,1,0,0,0.319681,0,0,79.8
'University of Montpellier',1,1,8,1,1,0,0,1,0,0,1,1,10,1,1,1,1,1,1,0,1,0,1,0,0,1,0,1,1,1,1,1,1,1,1,0,1,1,1,0,0,0,1,1,0,1,1,21,0,1,1,0,0,0,0,90,1,0,1,0,1,0,2.1,0,1,1,0,0,-0.928878,0,0,79.79
'University of Dar es Salaam',1,1,7,0,0,0,0,0,1,1,1,1,7,1,1,1,0,1,1,12,0,0,1,1,1,1,0,1,1,1,1,1,1,1,1,1,1,0,1,1,1,0,1,0,1,1,1,12.63,0,1,1,0,0,0,0,75,1,0,1,0,1,1,97,0,1,0,0,0,1.60893,0,0,79.78
'Iowa State University',1,1,9,1,0,0,0,0,0,0,1,0,1,0,0,1,1,1,1,20,1,1,0,0,1,1,0,1,1,1,1,1,1,1,1,1,0,0,1,0,0,1,1,0,1,1,1,8.86,0,1,1,0,0,0,0,75,1,0,1,1,1,1,81.2,0,1,1,0,0,0.36022,3650,1,79.77
'University of Saskatchewan',1,1,6,1,1,0,0,1,0,0,0,0,0,0,1,1,0,1,1,1,0,0,1,1,0,1,0,1,1,1,1,1,1,1,1,1,1,1,1,0,0,0,0,0,1,1,1,17.4,0,1,1,0,0,0,0,75,1,0,1,1,1,1,100,0,1,1,0,0,-0.860802,42,0,79.77
'University of California, San Diego',1,1,7,1,0,0,0,1,1,1,1,1,2,0,1,1,0,1,1,8,1,1,0,1,1,1,0,1,1,1,1,1,1,1,1,1,1,1,1,0,0,0,1,0,1,1,1,14.18,0,1,0,0,0,0,0,75,1,0,0,1,1,1,89.3,0,1,1,0,0,2.63218,5,0,79.73
'University of Genoa',1,1,7,1,1,0,0,1,0,0,1,1,10,1,1,1,0,1,1,5,1,1,1,0,0,1,0,1,1,1,1,1,1,1,1,1,1,0,1,1,0,0,0,0,1,1,0,12.63,0,1,1,0,0,0,0,90,1,0,1,0,1,0,70,0,1,0,0,0,-1.29899,0,0,79.72
'National University of Sciences and Technology',1,1,8,1,1,0,0,1,1,1,1,1,10,1,1,1,0,1,1,20,1,1,1,1,1,1,0,1,1,1,1,1,1,1,1,1,1,1,1,0,0,0,1,0,1,1,1,15.43,0,1,1,0,0,1,0,75,1,0,1,1,1,1,84.2,0,1,0,0,0,0.0316569,150,0,79.7
'Grenoble Alpes University',1,1,1,1,0,0,0,1,1,1,1,1,6,1,1,1,1,1,1,0,1,1,0,1,0,1,0,1,1,1,1,1,1,1,1,1,1,1,1,1,0,0,0,1,1,0,0,21,0,0,1,1,0,0,1,75,1,0,1,1,1,0,73.1,0,1,1,1,0,-0.734642,0,0,79.59
'Memorial University of Newfoundland',1,1,4,1,0,0,0,0,1,1,1,0,0,0,1,1,1,1,1,0,1,1,0,1,1,1,0,1,1,1,1,1,1,1,1,1,1,1,1,1,0,0,0,0,1,1,1,12.63,0,1,1,0,0,0,0,100,1,0,1,0,1,1,52,0,1,1,0,0,-0.274736,4,0,79.57
'Brno University of Technology',1,1,2,1,0,1,0,0,0,0,1,1,2,1,1,1,1,1,0,1,1,1,1,1,0,1,0,1,1,1,1,1,1,1,1,0,1,1,1,1,0,0,1,0,1,1,1,17.39,0,1,0,0,0,1,0,75,1,1,1,1,1,1,38.5,0,1,1,0,0.693147,-1.23719,0,0,79.57
EPFL,1,1,4,1,1,0,0,0,0,0,1,1,10,0,1,1,1,1,0,2,1,1,1,0,0,1,0,1,1,1,1,1,1,1,1,0,1,1,1,0,0,0,1,0,1,1,1,16.1,0,1,1,0,0,0,0,100,1,0,1,1,1,1,85,0,1,1,0,0,0.962072,0,0,79.57
'University of Ljubljana',1,1,3,1,1,0,0,0,0,0,1,0,0,1,1,1,0,1,1,7,1,1,1,1,0,1,0,1,1,1,1,1,1,1,1,0,1,0,1,0,0,0,1,0,1,1,1,7.01,0,1,1,0,0,0,0,100,1,0,1,0,1,1,95.7,0,1,1,0,0,-1.3384,8,0,79.53
'University of California, Irvine',0,1,3,1,0,0,0,1,1,1,1,0,0,1,1,1,1,1,1,0,1,1,0,0,0,1,0,1,1,1,1,1,1,1,1,0,1,0,0,0,0,1,1,0,1,1,1,9.74,0,1,0,0,0,0,0,90,1,0,0,1,1,1,96.8,0,1,0,0,0,-0.584446,4,0,79.47
'University of Liverpool',1,1,4,1,0,0,1,1,0,0,1,0,0,0,1,1,1,1,1,0,1,1,0,1,0,1,0,1,1,1,1,1,1,1,1,1,1,1,1,0,0,0,0,0,1,1,0,14.6,0,1,0,1,0,0,1,100,1,0,1,1,1,1,83.3,0,1,1,0,0,-0.73149,0,0,79.43
'Royal University of Phnom Penh',1,1,9,1,0,0,0,0,0,0,1,0,0,1,1,1,0,1,1,0,1,1,0,1,0,1,0,1,1,1,1,1,1,1,1,1,1,1,1,0,0,0,1,0,1,1,1,19.08,0,1,1,0,0,0,0,75,1,0,1,1,1,1,97.1,0,1,0,0,0,-0.307527,0,0,79.42
'Seattle University',0,1,8,1,0,0,0,0,0,0,0,1,2,0,1,1,1,1,1,7,1,1,1,1,0,1,0,1,1,1,1,1,1,1,1,1,1,1,1,0,0,0,1,0,1,1,1,21,0,1,0,0,0,0,1,90,1,0,1,1,1,1,95.8,0,1,1,0,0,-0.893534,3650,1,79.36
'NIT Calicut',1,1,8,1,1,0,0,1,1,1,1,1,10,1,1,1,1,1,1,20,1,1,0,1,0,1,0,1,1,1,1,1,1,1,0,1,1,0,1,1,1,0,0,0,0,1,0,13.85,0,1,0,0,0,0,0,75,1,0,1,1,1,1,86.6,0,1,0,0,0,0.0266056,0,0,79.35
'University of Craiova',1,1,8,1,0,0,0,0,0,0,0,0,1,1,1,1,0,1,1,0,0,0,1,1,0,1,0,1,1,1,1,1,1,1,1,0,1,0,1,0,1,0,1,1,1,1,1,15.43,0,1,0,0,0,0,0,75,1,1,1,1,1,1,77.8,0,1,0,0,0.693147,-1.32962,26,0,79.28
'Eastern University Sri Lanka',1,1,8,1,0,0,0,0,0,0,1,0,1,1,1,1,0,1,1,2,1,1,1,0,0,1,0,1,1,1,1,1,1,1,1,1,1,0,1,1,0,0,1,0,1,1,1,8.23,0,1,1,0,0,0,0,75,1,0,1,0,1,1,100,0,1,0,0,0,-1.14512,11,0,79.24
'University of Santiago Chile',1,1,5,1,1,0,0,0,1,1,1,0,0,0,1,1,1,1,0,2,0,0,1,0,1,1,0,1,1,1,1,1,1,1,1,1,1,0,1,0,0,0,1,0,0,1,1,15.43,0,1,1,0,0,0,0,75,1,2,1,0,1,1,50.9,0,1,0,0,1.09861,-0.56194,0,0,79.17
'Corvinus University of Budapest',1,1,8,1,1,0,0,1,1,2,0,1,4,0,1,1,0,1,1,4,1,1,1,1,1,1,0,1,1,1,1,1,1,1,1,0,1,0,1,1,0,0,1,0,1,1,1,21,0,1,1,1,0,0,1,90,1,2,1,1,1,0,84.1,0,1,0,0,1.09861,-0.116336,0,0,79.11
'Mississippi State University',1,1,2,1,0,0,0,0,0,0,1,0,1,1,1,1,1,1,1,5,1,0,1,1,0,1,1,1,1,1,1,1,1,1,1,1,1,0,1,0,0,0,1,0,1,1,1,15.91,0,1,0,0,0,0,1,75,1,0,0,1,1,1,58.8,0,1,0,0,0,0.0165356,0,0,79.06
'Indian Institute of Technology Goa',1,1,4,1,0,0,0,0,0,0,1,0,0,1,1,1,1,1,1,0,0,0,1,1,1,1,0,1,1,1,1,1,1,1,1,1,1,0,1,1,1,0,0,0,1,1,1,12.63,0,1,1,0,0,0,1,90,1,1,0,0,1,1,95.2,0,1,0,0,0.693147,4.0003,22,0,79.03
'Brown University',0,1,4,1,0,0,0,0,0,0,0,0,1,0,1,1,0,1,1,1,1,1,1,1,1,1,0,1,1,1,1,1,1,1,1,1,1,1,1,0,0,0,1,0,1,1,1,21,0,0,0,0,0,0,0,75,1,0,1,1,1,1,64.8,0,1,1,0,0,-0.320934,5,0,79.01
'Mahidol University',1,1,10,1,1,0,0,0,0,0,1,0,0,1,1,1,0,1,1,4,1,1,0,0,0,1,0,1,1,1,1,1,1,1,1,0,1,1,1,1,0,0,1,0,1,1,1,6.1,0,1,1,0,0,0,0,90,1,0,1,1,1,1,21.6,0,1,0,0,0,-0.90872,19,0,78.86
'Smith College',0,1,5,1,0,0,0,0,0,0,1,0,0,0,1,1,1,1,1,0,0,0,0,0,1,1,0,1,1,1,1,1,1,1,1,1,1,0,1,0,0,0,1,0,1,1,1,15.85,0,1,0,0,0,0,0,100,1,0,1,1,1,1,16.7,0,1,1,0,0,-0.0317334,1,0,78.82
'Riga Stradins University',1,1,9,1,1,0,0,1,1,1,1,1,10,0,1,1,1,1,1,15,1,1,1,0,0,1,0,1,1,1,1,1,1,0,1,1,1,0,1,0,0,0,0,1,1,1,0,21,0,1,0,1,0,0,0,75,1,0,1,1,1,1,20,0,1,1,0,0,-0.788992,0,0,78.81
'University of Ostrava',1,1,9,1,1,0,0,0,1,1,1,0,1,0,0,1,1,1,1,0,0,0,0,0,0,1,1,1,1,1,1,1,1,1,1,0,0,1,1,0,0,1,1,1,1,1,1,8.06,0,1,1,0,0,0,1,75,1,0,0,1,1,0,99.3,0,1,0,0,0,0.267374,3650,1,78.81
'Roma Tre University',1,1,10,1,1,0,0,0,1,0,0,0,0,1,1,1,1,1,1,0,0,0,0,0,0,1,0,1,1,1,1,1,1,1,1,1,1,0,1,1,0,0,1,0,1,1,0,21,0,1,1,0,0,0,0,75,1,0,1,0,1,0,60,0,1,1,0,0,-1.06325,0,0,78.75
'Universite Cote d\'Azur',1,1,8,1,1,0,0,1,1,0,0,1,2,1,0,1,1,1,1,0,1,1,0,1,0,1,0,1,1,1,1,1,1,1,1,1,1,1,1,1,1,0,0,1,1,1,1,16.1,0,0,1,0,0,0,0,75,1,0,0,1,1,0,86,0,1,0,0,0,1.13351,3650,1,78.74
'University of San Carlos',1,1,6,1,0,0,0,1,1,1,1,0,0,1,1,1,0,1,1,0,0,0,1,1,0,1,0,1,1,1,1,1,1,1,1,0,1,1,1,0,0,0,1,0,1,1,1,17.58,0,1,1,0,0,1,0,75,1,0,1,1,1,1,86,0,1,1,0,0,-1.63453,3,0,78.73
'American University',1,1,12,1,0,1,0,1,1,0,0,0,1,1,0,1,1,1,1,1,1,1,0,1,1,1,0,1,1,1,1,1,1,1,1,1,1,1,1,0,0,0,1,0,1,1,1,11.07,0,1,1,1,0,0,0,100,1,0,1,1,1,1,72.4,0,1,0,0,0,-0.0460277,3650,1,78.72
'Jimma University',1,1,1,1,0,0,0,0,0,0,1,1,4,0,1,1,1,1,1,1,0,1,0,0,1,1,0,1,1,1,1,1,1,0,1,1,1,1,1,0,0,1,1,0,1,1,1,9.74,0,1,1,0,0,0,0,90,1,0,1,0,1,0,30.9,0,1,0,0,0,-0.696997,0,0,78.7
'University of Twente',1,1,5,1,1,0,0,1,0,0,1,0,0,1,0,1,1,1,1,17,1,1,1,1,1,1,0,1,1,1,1,1,1,1,1,1,1,1,1,1,0,0,1,0,1,1,1,15.83,0,1,0,0,0,0,0,100,1,0,1,1,1,0,40,0,1,0,0,0,0.0541834,3650,1,78.69
'Chandigarh University',1,1,8,1,0,0,1,1,1,2,1,1,10,0,0,1,1,1,1,0,1,1,0,1,0,1,0,1,1,1,1,1,1,1,1,0,1,1,1,0,0,1,1,0,1,1,1,15.43,0,1,1,0,0,1,0,100,1,0,1,1,1,1,86.8,0,1,0,0,0,0.0225321,3650,1,78.57
'Delft University of Technology',1,1,2,1,1,0,0,0,0,0,1,1,10,1,1,1,0,1,1,0,1,1,1,1,0,1,0,1,1,1,1,1,1,1,1,1,1,1,1,1,0,0,0,0,0,1,1,14.85,0,1,1,0,0,1,1,100,1,0,1,1,1,1,87,0,1,1,0,0,0.0837674,0,0,78.56
'University of Alicante',1,1,1,1,1,0,0,0,0,0,1,1,2,1,1,1,0,1,1,4,1,1,1,0,0,0,0,1,1,1,1,1,1,1,1,0,1,0,1,1,0,0,1,1,1,1,1,15.43,0,0,1,1,0,1,0,75,1,0,1,1,1,0,78.6,0,1,1,0,0,1.51756,11,0,78.53
'Indian Institute of Technology Bhubaneswar',1,1,9,1,1,0,0,1,0,0,0,0,0,1,1,1,1,1,1,2,1,1,0,0,0,1,0,1,1,1,1,1,1,0,1,1,1,1,1,1,0,0,1,0,1,1,1,14.35,0,1,0,0,0,0,0,90,1,0,1,0,1,1,69.6,0,1,1,0,0,3.91247,0,0,78.53
'Bard College',1,1,9,1,0,0,0,0,1,0,0,1,5,1,1,1,1,1,1,7,1,1,0,1,1,1,0,1,1,1,1,0,1,1,1,1,1,0,1,0,0,0,1,0,1,1,1,15.91,0,0,1,0,0,0,0,75,1,0,1,1,1,1,85.7,0,1,0,0,0,0.0521678,0,0,78.52
'Ateneo de Manila University',1,1,8,1,0,0,0,0,0,0,1,0,0,0,1,1,0,1,1,20,1,1,1,1,0,1,0,1,1,1,1,1,1,1,1,1,1,0,1,0,0,0,1,0,1,1,1,17.04,0,1,0,0,0,0,0,75,1,0,1,1,1,1,24.8,0,1,0,0,0,-1.17601,0,0,78.48
'Maastricht University',1,1,4,0,1,0,0,1,1,1,1,1,4,0,1,1,1,1,1,1,1,1,1,1,0,1,0,1,1,1,1,1,1,1,1,1,1,1,1,1,0,0,1,0,0,1,1,17.02,0,1,0,0,0,0,0,100,1,0,1,0,1,0,100,0,1,1,0,0,1.70967,7,0,78.46
'Wilfrid Laurier University',1,1,5,1,0,0,0,1,0,0,1,0,0,0,1,1,1,1,1,7,1,0,0,1,1,1,0,1,1,1,1,1,1,0,1,1,1,1,1,0,0,0,0,0,1,1,1,9.74,0,1,1,1,0,0,1,75,1,0,1,1,1,1,97.6,0,1,1,0,0,0.207955,0,0,78.45
'Vanderbilt University',0,1,4,1,0,0,0,0,1,1,1,0,0,1,1,1,0,1,1,0,1,1,0,0,1,1,0,1,1,1,1,1,1,1,1,1,1,0,1,1,0,0,1,0,1,1,1,15.38,0,1,0,0,0,0,0,75,1,0,1,1,1,1,100,0,1,1,0,0,-0.244076,5,0,78.42
'University of Jos',1,1,7,1,0,0,0,0,0,0,1,1,10,0,1,1,1,1,1,20,1,1,0,1,1,1,0,1,1,1,1,1,1,1,1,1,1,1,1,0,0,0,1,0,1,1,1,4.94,0,1,1,0,0,0,0,75,1,1,1,0,1,1,40,0,1,0,0,0.693147,0.1334,0,0,78.4
'University of Aberdeen',1,1,6,1,0,0,1,1,0,0,1,1,5,0,0,1,0,1,1,0,0,0,0,1,1,1,0,1,1,1,1,1,1,1,1,1,1,1,1,0,0,1,1,0,0,1,1,9.32,0,1,1,0,0,1,0,100,1,0,1,1,1,1,61.9,0,1,1,0,0,3.21506,3650,1,78.37
'Indian Institute of Technology Dharwad',1,1,12,1,1,0,0,1,1,1,1,1,10,1,1,1,1,1,1,20,1,1,1,1,1,1,0,1,1,1,1,1,1,1,1,1,1,0,1,1,0,0,0,0,0,1,0,18.88,0,1,0,0,0,1,0,75,1,0,1,0,1,1,5.4,0,1,0,0,0,0.138059,0,0,78.37
'Nicolaus Copernicus University',1,1,11,0,0,0,0,1,1,1,1,1,6,0,1,1,1,1,1,6,1,1,1,1,0,1,0,1,1,1,1,1,1,1,1,0,1,1,1,0,0,0,1,1,1,1,1,16.67,0,1,1,0,0,0,1,90,1,0,1,1,1,0,97.9,0,1,0,0,0,0.184434,15,0,78.37
'University of Hyderabad',1,1,12,1,0,0,1,1,0,0,1,0,0,1,1,1,0,1,1,16,1,1,0,0,1,1,0,1,1,1,1,1,1,1,1,1,1,0,1,1,0,0,1,0,1,1,1,21,0,1,1,0,0,0,0,90,1,0,1,0,1,1,22.2,0,1,0,0,0,-0.452935,3,0,78.32
'University of Konstanz',1,1,3,1,1,0,0,0,1,1,1,1,4,0,1,1,1,1,1,7,1,1,1,0,0,1,0,0,0,1,1,1,1,0,1,1,0,1,1,1,0,0,1,0,1,1,1,21,0,1,1,0,0,0,0,75,1,0,1,1,1,0,50,0,1,1,0,0,-0.718638,0,0,78.29
'Royal Danish Academy',1,1,2,0,1,0,0,0,0,0,0,1,6,0,1,1,1,1,1,4,1,1,1,0,0,1,0,1,1,1,1,1,1,1,1,1,1,0,1,1,0,0,1,0,1,1,1,19.48,0,1,1,0,0,0,0,100,1,0,1,1,1,0,95.8,0,1,1,0,0,-0.635463,0,0,78.22
'Chiang Mai University',1,1,8,1,1,0,0,0,0,0,1,1,10,1,1,1,1,1,0,12,1,1,1,1,0,1,0,1,1,1,1,1,1,1,1,0,1,0,1,0,0,0,1,1,1,1,1,4.48,0,1,1,0,0,0,0,75,1,0,1,1,1,1,3.4,0,0,0,0,0,3.66584,1,0,78.22
'Illinois Institute of Technology',1,1,6,1,0,0,0,1,0,0,1,1,2,0,1,1,1,1,1,1,1,1,0,1,0,1,0,1,1,1,1,1,1,1,1,1,1,1,1,0,0,0,1,0,1,1,1,15.91,0,1,1,1,0,0,1,90,1,0,1,1,1,1,91.1,0,1,0,0,0,-0.216109,195,0,78.19
'Federal University of Grande Dourados',1,1,7,1,1,0,0,0,0,0,1,1,10,1,1,1,1,1,1,2,1,0,1,1,0,1,1,1,1,1,1,1,1,0,1,0,0,1,1,1,0,0,1,1,0,1,1,12.63,0,1,1,0,0,0,0,75,1,3,1,0,1,1,93.1,0,1,1,0,1.38629,-0.502055,0,0,78.18
'Ain Shams University',1,1,17,1,0,0,0,1,1,2,1,1,10,1,1,1,0,1,1,6,1,1,0,1,1,1,0,1,1,1,1,1,1,1,0,1,1,1,1,0,0,0,1,1,1,1,1,8.06,0,1,1,1,1,0,0,75,1,0,1,1,1,1,100,0,1,0,0,0,0.471252,0,0,78.13
'University of Limerick',1,1,5,1,0,0,0,0,0,0,1,1,7,1,1,1,1,1,1,0,1,1,1,1,1,1,0,1,1,1,1,1,1,1,1,0,1,1,1,1,0,0,0,0,1,1,0,10.44,0,1,0,1,0,1,0,90,1,0,0,0,1,1,100,0,1,1,0,0,-0.553258,4,0,78.1
'Munster Technological University',0,1,4,1,0,0,0,0,0,0,1,0,0,0,1,1,0,1,1,3,1,1,0,0,0,1,0,1,1,0,1,1,1,1,1,1,1,1,1,1,0,1,1,0,1,1,1,15.43,0,1,1,0,0,1,0,75,1,0,1,0,1,1,97,0,1,1,0,0,-0.591572,0,0,78.01
'Sri Venkateswara University',1,1,9,1,0,0,0,1,1,1,1,0,0,0,1,1,1,1,1,12,1,0,1,0,0,1,0,1,1,1,1,1,1,0,1,1,1,1,1,0,1,0,0,0,1,0,0,12.63,0,1,0,0,0,1,1,90,1,1,1,0,1,0,44.4,0,1,1,0,0.693147,0.932894,17,0,77.95
'University of Latvia',1,1,5,0,1,0,1,1,0,0,1,1,10,0,1,1,1,1,1,7,0,0,1,0,0,1,0,1,1,1,1,1,1,1,1,1,1,1,1,0,0,0,0,0,1,1,1,17.22,0,1,1,0,1,1,0,50,1,0,1,0,0,1,96.7,0,1,0,0,0,1.03569,7,0,77.92
'RMIT University',0,1,6,1,0,0,0,1,0,0,1,1,2,0,0,1,1,1,1,0,1,1,0,0,0,1,0,1,1,1,1,1,1,1,1,1,1,1,1,0,0,1,0,0,1,1,0,18.62,0,1,0,0,0,0,1,75,1,0,1,1,1,1,45.8,0,1,1,0,0,0.0158514,3650,1,77.88
'Jagiellonian University',1,1,0,0,1,0,0,1,1,1,1,1,10,0,1,1,1,1,1,17,1,1,1,1,0,1,0,1,1,1,1,1,1,1,1,1,0,1,0,0,0,1,1,0,1,1,1,8.47,0,1,1,0,0,1,0,75,1,0,1,0,1,0,72.7,0,1,1,0,0,0.758386,0,0,77.82
'National Yunlin University of Science and Technology',1,1,20,1,0,0,0,1,0,0,1,1,7,1,1,1,1,1,0,1,1,1,0,0,0,1,0,1,1,1,1,1,1,1,1,1,1,1,1,0,0,0,1,0,1,1,1,20.86,0,1,1,0,0,0,0,75,1,39,0,1,1,0,60.6,0,1,1,0,3.68888,-1.02731,8,0,77.79
'University of Sindh',1,1,2,1,0,0,0,0,0,0,0,0,0,1,1,1,1,1,1,0,1,1,1,0,0,1,0,1,1,1,1,1,1,1,1,1,1,0,1,1,1,0,1,0,1,1,1,15.43,0,1,1,0,0,0,0,75,1,3,1,0,1,1,61.1,0,1,0,0,1.38629,0.118831,4,0,77.79
'Paris-Saclay University',1,1,4,1,1,0,0,1,1,1,1,1,10,0,1,1,1,1,1,2,1,1,0,0,0,1,0,1,1,1,0,1,1,1,1,1,1,1,1,0,0,0,1,1,0,1,1,6.58,0,1,1,0,0,0,0,90,1,0,1,0,1,0,81.8,0,1,1,0,0,-0.168424,0,0,77.78
'Universiti Tunku Abdul Rahman',1,1,11,1,0,1,0,0,0,0,1,0,1,1,0,1,1,1,0,0,0,0,0,0,0,1,0,1,1,1,1,1,1,1,1,1,1,0,1,1,0,1,0,0,1,1,0,21,0,1,0,1,0,0,0,75,1,0,1,0,1,0,40.9,0,1,0,0,0,-0.54652,3650,1,77.77
'Drexel University',0,1,4,1,0,0,0,1,1,1,1,1,10,0,1,1,0,1,1,8,1,1,0,1,1,1,1,1,1,1,1,1,1,1,1,1,1,0,1,0,0,0,1,0,1,1,1,12.63,0,1,0,0,0,0,1,100,1,0,1,1,1,1,66.7,0,1,0,0,0,1.07328,0,0,77.68
'Indian Institute of Technology Bombay',1,1,6,1,1,0,0,1,1,1,1,1,5,1,1,1,1,1,1,20,1,0,1,0,0,1,0,1,1,1,1,1,1,0,1,0,1,1,1,0,0,0,0,0,1,1,1,11.2,0,1,1,0,0,0,0,75,1,1,1,1,1,1,100,0,1,0,0,0.693147,-0.286245,0,0,77.63
'University of Algarve',1,1,3,0,1,0,1,1,1,1,1,0,0,0,1,1,1,1,1,20,1,0,1,1,1,1,0,1,1,1,1,1,1,1,1,1,1,1,1,1,0,0,1,0,1,1,1,21,0,1,0,0,0,0,0,75,1,0,1,0,1,0,92.1,0,1,0,0,0,-0.00670468,21,0,77.63
'Rovira i Virgili University',1,1,9,1,1,0,0,1,0,0,1,0,0,1,1,1,1,1,1,0,0,0,1,1,0,1,0,1,1,1,1,1,1,1,0,1,1,1,1,1,0,0,0,0,1,1,1,8.86,0,1,1,0,0,0,0,75,1,0,1,1,1,0,22.2,0,1,1,0,0,0.244802,0,0,77.63
'Chulalongkorn University',1,1,6,1,1,0,1,1,1,1,1,0,0,1,0,1,1,1,1,0,1,1,0,1,1,1,0,1,1,1,1,1,1,1,1,1,1,1,1,0,0,0,1,0,1,1,1,21,0,1,0,0,0,0,0,100,1,0,1,0,1,1,59.1,0,1,1,0,0,-1.62289,3650,1,77.58
'University of Chicago',1,1,4,1,0,0,0,0,1,1,0,0,0,0,0,1,1,1,1,4,0,0,0,1,1,1,0,1,1,1,1,1,1,1,0,1,1,0,1,0,0,1,1,0,1,1,1,8.45,0,1,1,1,0,0,0,75,1,0,1,1,1,1,100,0,1,1,0,0,-0.00625234,3650,1,77.49
'Dalhousie University',1,1,6,0,0,0,0,1,0,0,1,1,3,1,0,1,0,1,1,0,0,0,0,1,0,1,0,1,1,1,1,1,1,1,1,1,1,1,1,1,0,1,0,0,1,1,1,15.52,0,1,1,0,0,0,1,90,1,0,1,1,1,1,62.5,0,1,1,0,0,-0.598326,3650,1,77.48
'Clemson University',1,1,6,1,0,0,0,1,1,1,1,1,2,0,1,1,1,1,1,7,1,1,0,0,1,1,0,1,1,1,1,1,1,1,1,1,1,1,0,0,0,0,0,0,1,1,1,19.8,0,1,1,0,0,0,0,75,1,0,1,1,0,1,42.4,0,1,1,0,0,3.76454,1,0,77.47
'Ulm University',1,1,5,1,1,0,0,1,0,0,1,1,3,1,1,1,1,1,1,8,1,1,1,0,0,1,0,1,0,1,1,1,1,0,0,1,1,1,1,0,0,0,1,0,1,1,1,12.63,0,1,1,0,0,1,0,75,1,0,1,1,1,1,73.5,0,1,1,0,0,0.560021,0,0,77.47
'University of Adelaide',1,1,6,1,0,0,0,0,0,0,1,0,0,0,0,1,0,1,1,0,0,0,0,0,0,1,0,1,1,1,1,1,1,1,1,0,1,1,1,1,0,1,0,0,1,1,1,16.58,0,1,1,1,1,0,1,100,1,0,1,1,1,1,87.5,0,1,1,0,0,0.569939,3650,1,77.41
'University at Buffalo',1,1,1,1,0,1,0,1,0,0,1,1,10,0,1,1,1,1,1,15,1,1,1,1,1,1,0,1,1,1,1,1,1,0,1,1,1,1,1,0,0,0,1,0,1,1,1,3.21,0,1,1,0,0,0,1,100,1,0,1,1,0,1,88.7,0,1,1,0,0,-0.485422,0,0,77.36
'Victoria University of Wellington',1,1,5,1,0,0,0,1,0,0,0,0,0,1,0,1,1,1,1,0,1,1,0,0,0,1,0,0,1,1,1,1,1,1,1,1,1,1,1,1,0,0,1,1,1,0,1,10.05,0,1,1,0,0,0,0,100,1,0,1,1,1,1,95.5,0,1,0,0,0,-0.552657,3650,1,77.25
'Vytautas Magnus University',1,1,5,1,1,0,0,0,0,0,1,0,0,1,1,1,0,1,0,0,1,1,0,1,0,1,1,1,1,1,1,1,1,1,1,1,1,0,1,1,0,0,1,0,0,1,1,11.73,0,1,1,1,0,0,1,90,1,2,1,1,1,0,2.6,0,1,0,0,1.09861,-0.118306,0,0,77.21
'Pomona College',0,1,7,1,0,0,0,0,0,0,0,0,1,0,1,1,1,1,1,18,1,1,0,0,1,1,0,1,1,1,1,1,1,1,0,1,1,1,1,0,0,0,0,0,1,1,0,21,0,1,0,0,0,0,0,100,1,0,1,1,1,1,72,0,1,1,0,0,-0.296696,0,0,77.2
'Bowling Green State University',1,1,8,1,0,0,0,1,0,0,0,0,0,0,0,1,1,1,1,0,1,1,0,0,1,1,1,1,1,1,1,1,1,1,1,1,1,1,0,0,0,1,1,0,0,0,1,21,0,1,0,1,0,1,1,90,1,0,1,1,1,1,55.9,0,1,1,0,0,0.346133,3650,1,77.11
'Nagoya University',1,1,0,1,0,1,0,0,1,1,1,1,10,1,1,1,1,1,1,20,1,1,1,1,1,1,0,1,1,1,1,1,1,1,0,1,1,1,1,0,0,0,1,1,1,1,1,17.31,0,1,1,0,0,0,0,100,1,0,0,1,1,0,93.9,0,1,1,0,0,0.134739,95,0,77.09
'Lund University',1,1,1,1,0,0,0,0,1,1,1,1,2,0,1,1,1,1,1,12,1,1,1,1,0,0,0,1,1,1,1,1,1,0,1,1,1,1,1,1,0,0,1,0,0,1,1,15.43,0,0,1,0,0,0,0,100,1,4,1,1,1,1,100,0,1,1,0,1.60944,1.40898,0,0,77.05
'Universidad de las Americas Puebla',1,1,7,1,0,0,0,1,1,1,1,0,0,1,0,1,1,1,0,3,1,1,0,0,1,1,0,1,1,1,1,1,1,1,1,0,1,0,1,1,1,1,1,0,1,0,1,1.11,0,1,1,0,0,0,0,75,1,2,1,0,0,1,16,0,1,0,0,1.09861,0.0316586,3650,1,77.03
'University of Thessaly',1,1,6,1,1,0,0,1,0,0,1,0,0,1,1,1,1,1,1,6,0,0,1,0,0,1,0,1,0,1,0,1,1,0,1,1,1,1,1,1,0,0,1,1,1,1,1,18.1,0,1,1,0,0,0,0,75,1,0,0,1,1,0,87.5,0,1,1,0,0,-1.15282,55,0,77.01
'Nantes University',1,1,1,1,1,1,0,1,1,0,1,1,4,0,1,1,1,1,1,7,1,1,1,1,0,1,1,1,1,1,1,1,1,0,0,1,1,1,1,1,0,0,0,1,1,1,1,7.12,0,0,1,0,0,0,0,75,1,0,1,1,1,0,75,0,1,1,0,0,0.143663,0,0,76.97
'University of Edinburgh',1,1,10,1,0,0,0,1,1,1,1,0,0,0,1,1,0,1,1,1,1,1,1,0,0,1,0,1,1,1,1,1,1,0,1,1,1,0,1,1,0,0,1,0,1,0,1,9.28,0,1,1,0,0,0,0,100,1,0,1,1,1,1,100,0,1,1,0,0,-1.71455,1,0,76.89
'Hong Kong Polytechnic University',1,1,7,1,1,0,1,1,0,0,1,0,0,0,0,1,1,1,1,1,1,1,0,1,0,1,0,1,1,1,1,1,1,1,1,1,1,0,1,0,0,0,0,1,1,1,1,9.59,0,1,1,0,0,0,1,100,1,0,1,1,1,1,98,0,1,1,0,0,0.914724,3650,1,76.88
'Copenhagen Business School',1,1,5,1,1,1,0,1,0,0,0,1,2,0,1,1,0,1,1,7,1,1,1,0,0,1,0,0,1,1,0,1,1,0,1,1,1,0,1,0,0,1,1,0,1,1,1,14.67,0,1,0,0,0,0,0,100,1,0,0,0,1,0,63.2,0,1,0,0,0,1.43323,0,0,76.86
'Clark University',1,1,5,1,0,1,0,1,1,1,1,1,3,0,0,1,1,1,1,0,1,1,0,1,0,1,0,1,1,1,1,1,1,1,1,1,1,1,1,0,0,0,1,0,1,1,1,16.81,0,1,0,0,0,0,0,90,1,0,1,1,1,1,83.3,0,1,1,1,0,0.17688,3650,1,76.85
'University of St. Thomas',0,1,1,1,0,0,0,1,1,1,1,1,10,0,1,1,1,1,0,0,1,1,0,0,1,1,0,1,1,1,1,1,1,1,1,1,1,1,1,0,0,0,1,0,1,1,1,21,0,1,0,0,0,0,0,75,1,0,1,1,1,1,86.4,0,1,1,0,0,1.75319,4,0,76.83
'University of Gdansk',1,1,8,0,0,0,0,0,0,0,1,1,8,0,1,1,1,0,0,7,1,1,1,1,0,1,0,1,1,1,1,1,1,1,1,1,1,1,1,0,1,0,1,0,0,1,1,18.42,0,1,1,1,0,0,0,75,1,0,1,0,1,0,97.4,0,1,1,0,0,0.837026,1,0,76.82
'Gonzaga University',1,1,1,1,0,0,0,1,0,0,1,1,7,1,1,1,0,1,1,11,1,1,0,1,1,1,0,1,1,1,1,1,1,1,1,1,1,1,1,1,0,0,1,0,0,1,1,12.63,0,1,1,0,0,0,1,75,1,1,1,1,1,1,79.2,0,1,1,0,0.693147,1.31089,34,0,76.79
'Ca\' Foscari University of Venice',1,1,6,1,0,0,0,0,1,0,0,1,10,1,1,1,1,1,1,0,1,1,1,1,1,1,0,1,1,1,1,1,1,0,1,1,1,1,1,1,0,0,1,0,1,1,1,15.43,0,1,1,0,0,1,0,85,1,0,1,1,1,0,43.6,0,1,0,0,0,0.00493916,0,0,76.72
'University of Education Winneba',1,1,7,1,0,0,0,0,1,1,1,1,4,1,1,1,1,1,1,9,1,1,1,1,1,1,1,1,1,1,1,1,1,0,1,1,1,0,1,1,0,0,0,0,1,1,0,21,0,1,1,0,0,0,0,100,1,0,0,0,1,1,83.3,0,1,0,0,0,-0.711863,13,0,76.72
'Miami University',1,1,5,1,0,0,0,1,0,0,1,0,0,1,0,1,1,1,1,1,1,1,0,1,1,1,0,1,1,1,1,1,1,1,1,1,1,1,1,0,0,0,1,0,1,1,1,21,0,1,1,0,0,0,0,100,1,1,1,1,1,1,65.9,0,1,1,0,0.693147,2.22055,3650,1,76.71
'Roskilde University',1,1,7,1,1,0,0,0,0,0,0,0,0,0,1,1,0,1,0,0,0,0,1,0,0,1,0,0,1,1,1,1,1,0,1,0,1,1,1,1,0,1,1,0,1,1,1,14.74,0,1,0,0,0,1,0,75,1,0,1,1,1,0,100,0,1,0,0,0,0.587665,2,0,76.57
'Wake Forest University',1,1,2,1,0,1,0,1,0,0,0,1,10,0,1,1,1,1,1,0,1,1,0,0,1,1,0,1,1,1,1,1,1,1,1,1,1,1,1,0,0,0,0,0,1,1,1,15.91,0,1,1,0,0,0,0,90,1,0,1,1,1,1,60,0,1,0,0,0,0.0308299,41,0,76.56
'Far Eastern University',1,1,4,1,0,0,0,0,1,1,1,0,0,1,1,1,1,1,1,3,1,1,0,0,0,1,0,1,1,1,1,1,1,1,1,0,1,1,1,0,0,0,1,0,1,1,1,5.47,0,1,1,0,0,0,0,90,1,1,0,1,1,1,0,0,1,0,0,0.693147,0.410653,22,0,76.52
'Central University of Tamil Nadu',1,1,4,0,0,0,0,1,0,0,1,1,10,1,1,1,1,1,1,20,1,1,1,0,1,1,0,1,1,1,1,1,1,1,1,1,1,1,1,1,0,0,0,0,1,1,0,13.77,0,1,1,0,0,0,0,75,1,0,0,0,1,1,97.7,0,1,1,0,0,2.07904,4,0,76.45
'Nnamdi Azikiwe University',1,1,7,0,0,0,0,0,1,1,1,1,10,0,1,1,0,1,1,8,1,1,1,1,0,1,0,1,1,1,1,1,1,1,1,0,1,0,1,1,1,0,0,0,1,0,0,16.79,0,1,0,0,0,0,0,90,1,0,1,1,1,1,100,0,1,0,0,0,-1.54044,9,0,76.44
'University of Southampton',1,1,0,1,1,0,0,1,0,0,1,0,1,1,0,1,0,1,1,0,1,1,0,0,0,1,0,1,1,1,1,1,1,1,0,1,1,0,1,0,1,1,1,1,1,1,1,21,0,1,1,0,0,1,1,100,1,0,1,0,1,1,91.7,0,1,1,0,0,0.370878,3650,1,76.4
'University of Basel',1,1,5,1,1,0,0,1,1,3,1,0,0,0,0,1,1,1,1,0,1,1,0,0,1,1,0,1,1,1,1,1,1,1,1,1,1,1,1,1,0,0,0,1,1,1,1,15.91,0,1,0,0,0,1,1,75,1,0,1,1,1,1,95.8,0,1,0,0,0,0.757652,3650,1,76.4
'University of York',1,1,5,1,0,0,1,1,0,0,1,0,0,0,1,1,0,1,1,1,1,1,0,1,0,1,0,1,1,1,1,1,1,0,1,1,1,1,1,0,0,0,1,0,1,1,1,19.59,0,1,1,1,0,0,0,90,1,0,1,1,1,1,11.8,0,1,1,0,0,-1.05813,1,0,76.39
'Swarthmore College',1,1,5,1,0,0,0,0,0,0,0,1,4,0,1,1,1,1,1,4,1,1,1,0,1,1,0,1,1,0,1,1,1,1,1,1,1,1,1,0,0,0,1,0,1,1,1,21,0,1,1,0,0,0,0,75,1,0,1,1,1,1,91.7,0,1,1,0,0,-0.0804169,0,0,76.33
'Macalester College',1,1,3,1,0,0,0,1,0,0,0,1,5,1,0,1,1,1,1,20,1,1,0,0,0,1,0,1,1,1,1,1,1,1,1,1,1,1,1,0,0,0,1,0,1,1,1,21,0,1,1,0,0,0,0,100,1,0,1,1,1,1,53.3,0,1,0,0,0,-1.1413,3650,1,76.3
'Slovak University of Technology in Bratislava',1,1,2,1,1,0,0,1,1,1,1,0,1,1,1,1,1,1,1,0,1,1,1,1,0,1,0,1,1,1,1,1,1,1,1,0,1,0,1,1,0,0,0,1,1,1,1,12.1,0,1,1,0,0,0,0,75,1,0,0,1,1,0,96.7,0,1,1,0,0,-0.887696,39,0,76.29
'King\'s College London',1,1,6,1,0,0,0,0,0,0,0,1,4,0,1,1,1,0,1,4,1,1,0,0,0,1,1,1,1,1,1,1,1,1,1,1,1,0,1,0,0,0,1,0,0,1,1,6.13,0,1,0,0,0,0,1,75,1,0,1,1,0,1,100,0,1,1,0,0,-1.20968,0,0,76.19
'University of Cape Coast',1,1,7,1,0,1,0,1,1,1,1,1,10,1,1,1,0,1,1,2,1,1,1,0,0,1,0,1,1,0,1,1,1,1,1,1,1,0,1,0,0,0,1,0,1,1,1,21,0,0,1,0,0,1,0,90,1,0,1,1,1,1,95.7,0,1,1,0,0,-0.841029,3,0,76.18
'Tufts University',1,1,4,1,0,1,0,1,0,0,1,1,8,0,0,1,1,1,1,0,1,1,0,1,1,1,0,1,1,1,1,1,1,1,1,1,1,1,1,0,0,0,0,0,1,1,1,21,0,1,1,1,0,0,1,100,1,0,1,1,1,0,89.7,0,1,1,0,0,-0.306225,3650,1,76.17
'Stellenbosch University',1,1,5,1,1,0,0,0,0,0,1,1,8,1,1,1,0,1,1,5,1,1,0,0,1,1,0,0,1,1,1,1,1,0,1,1,1,1,1,0,0,0,1,0,1,1,1,13.02,0,1,1,1,0,0,0,90,1,1,1,1,1,0,95.5,0,1,1,0,0.693147,-0.519586,138,0,76.16
'James Cook University',1,1,2,1,0,0,0,1,0,0,1,1,2,0,0,1,0,1,1,0,0,0,0,1,0,1,0,1,1,1,1,1,1,1,1,1,1,1,1,0,0,1,1,0,1,1,1,21,0,1,0,0,0,0,1,75,1,0,1,1,1,1,100,0,1,1,0,0,0.0116149,3650,1,76.15
'University of Manchester',1,1,7,1,0,0,1,1,0,0,1,1,2,1,0,1,1,1,1,1,1,1,0,0,0,1,0,1,1,1,1,1,1,1,0,1,1,1,1,0,1,0,1,0,1,1,1,21,0,1,1,0,0,0,1,100,1,0,0,1,1,1,63,0,1,1,0,0,0.373545,3650,1,76.13
'National Chung Hsing University',1,1,10,1,1,0,0,0,0,0,1,0,0,1,1,1,1,1,0,0,1,1,0,0,1,1,0,1,1,1,1,1,1,0,1,1,1,1,1,1,0,0,1,1,1,1,1,12.63,0,1,1,0,0,1,0,75,1,0,0,1,1,0,40,0,1,0,0,0,2.82124,8,0,76.12
'University of Burdwan',1,1,11,0,0,1,0,1,1,1,1,0,0,1,1,1,1,1,0,0,1,1,1,1,0,1,0,1,1,1,1,1,1,1,1,1,1,1,1,0,0,0,0,0,1,1,1,15.43,0,1,0,0,0,0,0,75,1,0,1,0,1,0,2.9,0,1,0,0,0,-0.798537,0,0,76.11
'Union College',0,1,3,1,0,0,0,1,0,0,0,0,0,0,0,1,1,1,1,0,1,1,0,0,1,1,0,1,1,1,1,1,1,1,1,1,1,0,0,1,0,1,1,0,1,1,1,15.28,0,1,0,0,0,0,0,90,1,0,1,1,1,1,100,0,1,1,0,0,-1.24985,3650,1,76.11
'University of Zaragoza',1,1,1,0,1,0,0,1,1,1,1,1,7,1,1,1,1,1,0,8,1,0,1,1,1,1,0,1,1,1,1,1,1,1,1,1,1,1,1,0,0,0,1,0,0,1,0,12.02,0,1,1,1,0,0,0,75,1,0,1,0,1,0,80.9,0,1,1,0,0,1.92205,11,0,76.1
'University of Fribourg',1,1,1,0,1,1,0,1,1,0,0,1,5,1,1,1,0,1,1,5,0,0,1,0,0,1,0,1,1,1,1,1,1,1,1,1,1,0,1,1,0,0,0,0,1,1,1,11.65,0,1,1,0,0,0,0,75,1,0,1,0,1,1,25,0,1,0,0,0,-0.381574,0,0,76.1
'National University of Science and Technology Zimbabwe',1,1,9,1,0,0,0,0,0,0,1,0,0,1,0,1,1,1,1,0,1,0,0,1,0,1,0,1,1,1,1,1,1,0,1,1,1,1,1,1,0,1,0,0,1,0,0,21,0,1,1,0,0,0,0,90,1,0,1,1,1,1,90.9,0,1,0,0,0,-0.472042,3650,1,76
'University of Geneva',1,1,4,1,1,0,0,0,1,0,1,1,10,0,1,1,1,1,1,3,1,1,1,1,0,1,0,1,1,1,1,1,1,0,1,1,1,1,1,0,0,0,1,0,0,1,1,15.91,0,1,1,0,0,0,0,75,1,1,1,0,0,1,22.6,0,1,0,0,0.693147,1.25258,0,0,76
'Johannes Kepler University Linz',1,1,9,1,1,0,0,0,1,1,1,1,6,1,1,1,0,1,1,6,1,1,1,0,0,1,0,1,1,1,1,1,1,0,1,0,1,1,1,0,0,0,0,0,1,1,0,21,0,1,1,0,0,1,0,100,1,0,1,0,1,0,87.1,0,1,1,0,0,-0.829699,0,0,75.99
'Reykjavik University',1,1,20,1,0,0,0,0,1,1,1,0,0,0,0,1,1,1,1,0,0,0,0,1,0,1,0,1,1,1,1,1,1,1,1,0,1,0,1,1,1,1,1,0,0,1,1,10.37,0,1,0,0,0,0,0,75,1,0,1,1,1,1,14.3,0,1,0,0,0,0.991414,3650,1,75.98
'University of Nova Gorica',1,1,11,0,0,1,0,0,0,0,0,0,0,0,0,1,0,1,1,2,0,0,0,0,0,1,0,1,1,1,1,1,1,1,1,1,1,0,1,1,0,1,1,0,0,1,1,16.3,0,1,1,0,0,0,0,90,1,0,1,1,1,0,16.1,0,1,1,0,0,-1.28932,3650,1,75.97
'University of Helsinki',0,1,2,0,1,1,0,0,0,0,1,0,0,0,1,1,1,1,1,0,1,1,1,1,0,1,0,1,1,1,1,1,1,1,1,1,1,0,1,1,0,0,1,0,1,1,1,21,0,1,0,0,0,0,0,100,1,0,1,1,1,0,63.6,0,1,1,0,0,0.613854,4,0,75.84
'Gwangju Institute of Science and Technology',0,1,8,1,0,0,0,1,0,0,1,1,10,1,1,1,1,1,1,0,0,0,1,1,0,1,0,1,1,1,1,1,1,1,1,0,1,0,1,1,0,0,1,0,1,1,1,9.44,0,1,0,0,0,0,0,75,1,0,0,0,1,1,92.4,0,1,0,0,0,0.547306,0,0,75.83
'Marche Polytechnic University',1,1,1,1,1,0,0,0,0,0,0,1,6,1,1,1,0,1,1,2,0,0,0,0,0,1,0,1,1,1,1,1,1,1,1,0,1,1,1,0,0,0,1,1,0,1,1,16.39,0,1,1,0,0,0,0,75,1,0,1,0,1,0,92.3,0,1,0,0,0,-0.0509513,0,0,75.82
'Indian Institute of Technology Kanpur',1,1,8,1,1,0,0,0,1,0,1,0,0,1,0,1,1,1,1,0,1,1,0,1,1,1,0,1,1,1,1,1,1,1,1,1,1,0,1,1,0,0,1,0,1,1,1,17.04,0,1,1,0,0,0,0,90,1,0,0,1,1,1,97.3,0,1,1,0,0,1.08508,3650,1,75.78
'Stockholm University',1,1,10,1,1,0,0,0,0,0,0,1,10,0,1,1,1,1,0,20,1,1,1,0,0,1,0,0,1,1,1,1,1,0,1,1,0,1,1,1,0,0,1,0,0,1,1,8.72,0,1,1,0,0,0,0,90,1,0,1,0,1,0,59.3,0,1,1,0,0,1.49798,0,0,75.73
'University of Bonn',1,1,5,1,1,1,0,1,0,0,1,1,10,0,1,1,1,1,1,4,0,0,1,0,0,1,0,1,1,1,0,1,1,0,1,1,1,1,1,0,0,0,0,0,1,1,0,17.64,0,1,1,0,0,1,0,75,1,0,1,1,1,0,100,0,1,1,1,0,-0.448017,0,0,75.72
'UCSI University',1,1,3,1,1,0,0,1,0,0,1,0,0,0,1,1,1,1,1,0,1,1,0,1,1,1,0,1,1,1,1,1,1,1,1,1,1,0,1,0,0,0,1,0,1,1,0,11.76,0,1,0,0,0,0,1,75,1,9,1,1,1,1,56.5,0,1,0,0,2.30259,-1.4164,12,0,75.68
'University College Cork',1,1,3,1,0,0,0,1,0,0,1,1,8,0,1,1,0,1,1,0,1,1,1,0,0,1,0,1,1,1,1,1,1,0,1,1,1,1,1,0,0,0,1,1,1,1,1,21,0,1,1,0,0,1,0,100,1,0,1,1,1,0,81.1,0,1,1,0,0,-0.0971314,5,0,75.64
'Villanova University',1,1,8,1,0,0,0,0,0,0,1,1,10,1,1,1,1,1,1,1,1,1,1,1,1,1,0,1,1,1,1,1,1,1,1,0,1,1,1,1,0,0,1,0,1,1,1,14.94,0,1,1,1,0,1,0,75,1,1,0,1,1,0,100,0,1,1,0,0.693147,2.3811,460,0,75.63
'MNIT Jaipur',1,1,10,0,0,0,0,1,1,1,1,0,1,1,1,1,0,1,1,0,1,0,1,1,1,1,0,1,1,1,1,1,1,1,1,0,1,1,1,1,0,0,1,0,1,1,1,21,0,1,0,1,0,1,0,75,1,0,1,1,1,0,94.9,0,1,1,0,0,-0.697024,0,0,75.62
'Charles III University of Madrid',1,1,5,1,0,0,0,1,1,1,1,1,5,0,1,1,0,1,1,4,1,1,1,0,1,1,0,1,1,0,1,1,1,1,0,0,1,1,1,1,0,1,0,0,1,1,1,11.37,0,1,1,0,0,0,0,100,1,0,1,1,1,0,98.3,0,1,1,0,0,-0.132637,0,0,75.59
'Nagoya Institute of Technology',1,1,4,1,0,0,0,1,0,0,1,0,0,1,1,1,1,1,0,1,1,1,1,1,0,1,0,1,1,1,1,1,1,1,1,0,1,1,0,0,0,0,1,1,1,1,1,12.63,0,1,1,0,0,0,0,50,1,0,0,1,1,0,62.7,0,1,0,0,0,-1.20892,7,0,75.54
'University of California, Berkeley',1,1,3,1,0,0,0,1,1,1,1,0,0,0,0,1,1,1,1,0,1,1,0,0,1,1,0,1,1,1,1,1,1,1,1,1,1,1,1,0,0,0,0,1,1,1,1,15.13,0,1,1,0,0,0,0,90,1,0,1,1,1,1,42.9,0,1,1,0,0,-0.344136,3650,1,75.51
'Heidelberg University',1,1,4,0,1,0,0,1,1,1,1,0,0,0,1,1,1,1,1,3,0,0,0,1,0,1,0,0,1,1,1,1,1,1,1,0,1,1,1,0,0,0,1,0,1,1,1,5.2,0,1,1,0,0,0,0,100,1,0,1,1,1,0,5.3,0,1,1,0,0,-0.719365,0,0,75.49
'University of Glasgow',1,1,4,1,0,0,0,1,0,0,1,0,0,0,1,1,0,0,1,1,0,0,0,0,0,1,0,1,1,1,1,1,1,1,1,1,1,1,1,0,0,0,1,0,1,1,1,12.29,0,1,0,0,0,0,1,90,1,0,1,1,1,1,96.9,0,1,1,0,0,-1.01278,0,0,75.48
'Royal University of Bhutan',1,1,7,1,0,0,0,0,0,0,1,1,3,1,1,1,0,1,0,1,1,0,0,0,0,1,0,1,1,1,1,1,1,1,0,0,0,1,1,0,1,0,1,0,1,1,1,12.63,0,1,1,1,0,0,0,90,1,0,1,0,1,1,11.1,0,1,0,0,0,-0.0690419,1,0,75.47
'University of North Carolina at Chapel Hill',1,1,3,1,0,0,0,1,0,0,1,1,2,1,1,1,1,1,0,20,1,1,1,0,0,1,0,1,1,1,1,1,1,0,1,1,1,1,1,0,0,0,0,0,1,1,0,2.74,0,1,1,0,0,0,0,90,1,0,1,1,1,1,64.7,0,1,1,0,0,-0.951125,0,0,75.46
'IIIT Bangalore',1,1,7,1,0,0,0,0,0,0,1,1,9,0,1,1,1,1,1,10,1,0,0,0,0,1,0,1,1,1,1,1,1,0,1,1,1,0,1,0,1,0,1,1,1,1,1,2.16,0,1,1,0,0,0,0,75,1,0,0,1,1,1,78.6,0,1,1,0,0,-1.01232,206,0,75.44
'Boston University',0,1,3,1,0,0,0,0,0,0,1,0,0,1,0,1,1,1,1,0,1,1,0,0,0,1,0,1,1,1,1,1,1,1,1,1,1,1,1,1,0,0,1,0,1,1,1,12.61,0,1,0,0,0,0,0,100,1,0,0,1,1,1,30,0,1,1,0,0,-1.09324,3650,1,75.39
'Austral University',1,1,20,0,1,0,0,1,1,1,0,1,10,1,1,1,1,1,1,2,1,1,1,1,0,1,0,1,1,1,1,1,1,1,1,1,0,0,1,0,0,0,0,0,1,1,1,21,0,1,1,0,0,0,0,90,1,3,1,0,1,1,19.1,0,1,0,0,1.38629,-0.606959,4,0,75.32
'LUT University',1,1,5,1,1,0,0,1,0,0,1,1,10,0,1,1,1,1,0,5,1,1,1,0,1,1,0,1,1,1,0,1,1,0,1,1,1,1,1,1,0,0,1,0,0,1,1,21,0,1,1,0,0,0,0,100,1,0,1,1,1,1,78.6,0,1,0,0,0,0.512978,0,0,75.3
'University of South Bohemia',1,1,0,1,1,0,0,0,0,0,1,1,10,1,1,1,1,1,1,0,0,0,1,1,0,1,0,1,1,1,1,1,1,1,1,1,1,1,1,1,0,0,0,0,1,1,0,16.67,0,1,1,0,0,0,0,90,1,1,1,0,1,1,2.4,0,1,1,0,0.693147,-0.0618786,0,0,75.28
'Central Queensland University',1,1,4,1,0,1,0,0,0,0,0,0,0,1,0,1,0,1,1,0,1,1,0,0,1,1,0,0,1,1,1,1,1,0,1,1,1,1,1,0,0,1,0,1,1,1,0,21,0,0,0,0,0,0,1,75,1,0,1,1,1,1,91.1,0,1,1,0,0,0.0135702,3650,1,75.22
'Pondicherry University',1,1,7,0,0,0,0,0,1,1,1,1,10,0,1,1,1,1,1,20,1,1,1,1,1,1,0,1,1,1,1,1,1,1,1,1,1,0,1,0,0,0,0,0,1,1,1,21,0,1,0,0,0,0,0,90,1,0,0,0,1,1,17.5,0,1,0,0,0,0.837084,0,0,75.13
'Agricultural University of Athens',1,1,3,1,0,0,0,1,0,0,1,1,10,1,1,1,1,1,1,3,0,0,0,1,1,1,0,1,1,1,0,1,1,1,1,1,1,0,1,1,0,0,0,0,0,1,1,12.63,0,1,1,0,0,0,0,75,1,0,1,0,1,1,81,0,1,1,0,0,2.54473,4,0,75.13
'Indian Institute of Technology Guwahati',1,1,10,1,0,0,1,1,0,0,1,1,10,1,1,1,1,1,1,9,0,0,0,0,1,1,0,1,1,1,1,1,1,0,1,0,1,0,1,0,1,0,1,0,1,1,1,12.63,0,1,1,0,1,0,0,75,1,2,0,1,1,0,2.1,0,1,1,0,1.09861,0.744858,0,0,75.13
'Kaunas University of Technology',1,1,5,1,1,0,0,1,0,1,1,0,0,0,1,1,1,1,1,20,1,1,0,1,0,1,0,1,1,1,1,1,1,1,1,0,1,0,1,0,0,0,1,0,1,1,1,11.55,0,1,1,0,0,0,0,90,1,0,1,1,1,0,94.6,0,1,1,0,0,0.262537,211,0,75.1
'Rochester Institute of Technology',0,1,1,1,0,0,0,1,1,1,1,0,0,0,0,1,1,1,1,5,1,1,0,1,1,1,0,1,1,1,1,1,1,1,1,1,1,1,1,0,0,0,1,0,1,1,1,15.43,0,1,0,0,0,1,0,100,1,0,1,1,1,1,96.6,0,1,1,0,0,-0.06923,3650,1,75.09
'City University of Hong Kong',1,1,7,0,1,0,1,1,0,0,1,0,1,0,1,1,1,1,1,0,1,1,0,1,1,1,0,1,1,1,1,1,1,1,1,1,1,0,1,0,0,0,1,0,1,1,1,12.13,0,1,1,0,0,0,0,75,1,0,0,0,1,1,66.7,0,1,1,0,0,0.903086,0,0,75.08
'University of Lorraine',1,1,9,1,1,0,0,1,0,0,0,1,2,0,0,1,1,1,1,13,1,0,0,0,0,1,0,1,1,1,1,1,1,1,1,1,1,1,1,0,0,0,0,0,1,1,0,15.91,0,1,1,0,0,0,0,90,1,0,1,1,1,0,42.1,0,1,1,0,0,-0.946822,3650,1,75.06
'George Washington University',1,1,7,1,0,0,0,0,1,1,1,0,1,1,1,0,1,1,0,20,1,1,1,1,1,1,0,1,1,1,1,1,1,0,0,1,1,1,1,0,0,0,1,0,1,1,1,9.74,0,1,1,1,0,0,1,90,1,0,1,1,1,1,92.3,0,1,1,0,0,-0.0458206,0,0,74.99
'McMaster University',0,1,4,0,0,0,0,0,0,0,1,0,0,0,1,1,1,1,1,0,1,0,0,0,0,1,0,1,1,1,1,1,1,0,1,1,1,0,1,0,0,1,1,0,0,0,1,15.43,0,1,0,0,0,0,0,75,1,0,1,1,0,1,98.4,0,1,0,0,0,0.68816,1,0,74.98
'V. N. Karazin Kharkiv National University',1,1,1,1,1,0,0,1,0,0,1,1,7,1,1,1,0,1,0,0,1,1,0,1,0,1,0,1,1,1,1,1,1,1,1,1,1,1,1,1,0,0,1,0,1,1,1,14.86,0,1,1,0,0,0,0,75,1,0,1,0,1,1,0,0,1,0,0,0,-0.667717,7,0,74.98
'Auburn University',1,1,3,1,0,0,0,0,0,0,1,1,3,0,0,1,1,1,1,5,0,0,1,1,1,1,0,1,1,1,1,1,1,1,1,1,1,1,1,0,0,0,0,0,1,1,0,15.43,0,1,1,0,0,0,1,90,1,0,1,1,1,1,88,0,1,1,0,0,0.935099,3650,1,74.93
'Tilburg University',0,1,10,1,1,1,0,1,0,0,1,0,1,0,0,1,1,1,1,0,1,1,0,0,0,1,0,1,1,1,1,1,1,0,1,1,1,1,1,1,1,0,0,0,1,1,1,21,0,1,0,0,0,0,0,100,1,0,1,0,1,0,100,0,1,1,0,0,-0.196553,3650,1,74.92
'Central University of Karnataka',1,1,13,0,1,0,0,0,0,0,0,0,0,1,1,1,0,1,0,20,1,1,1,0,0,1,1,1,1,1,1,1,1,1,1,0,1,0,1,1,1,0,1,0,1,0,1,15.43,0,1,1,0,0,1,0,75,1,0,1,0,1,0,36.6,0,1,0,0,0,-0.345393,0,0,74.91
'University of Zambia',1,1,6,1,0,0,0,0,1,1,0,0,0,1,1,1,1,1,1,1,1,1,1,0,1,1,0,1,1,1,1,1,1,0,1,1,1,1,1,1,0,0,0,0,1,0,1,21,0,1,0,0,0,0,0,75,1,0,1,0,1,1,64.7,0,1,0,1,0,-0.313143,175,0,74.86
'Pavol Jozef Safarik University',1,1,8,1,0,0,0,1,0,0,1,0,0,0,1,1,0,1,1,0,1,0,0,0,0,1,0,0,1,1,1,1,1,1,1,0,1,1,1,1,0,0,1,1,1,1,1,21,0,1,1,1,0,1,0,90,1,0,1,0,1,0,26.5,0,1,0,0,0,-0.395788,46,0,74.81
'University of California, Santa Cruz',0,1,7,1,0,0,0,1,1,1,1,0,0,0,1,1,1,1,1,0,0,0,0,1,1,1,0,1,1,1,1,1,1,1,1,1,1,1,0,0,0,0,0,0,1,1,0,21,0,1,0,0,0,0,0,90,1,2,1,0,1,1,100,0,1,1,0,1.09861,-0.346208,11,0,74.73
'Texas Christian University',1,1,6,1,0,0,0,1,1,1,0,1,3,1,0,1,1,1,1,2,1,1,0,1,1,1,0,1,1,1,1,1,1,1,1,1,1,1,0,0,0,0,1,0,1,1,1,16.52,0,1,0,0,0,0,0,100,1,0,1,1,1,1,64,0,1,1,0,0,-0.50966,3650,1,74.73
'Amherst College',0,1,6,1,0,0,0,0,0,0,1,1,2,0,0,1,1,1,1,6,1,1,0,0,1,1,0,1,1,1,1,1,1,1,1,1,1,1,1,0,0,0,0,0,1,1,0,7.89,0,1,0,0,0,0,0,100,1,0,1,0,1,1,100,0,1,1,0,0,-0.168047,3650,1,74.7
'Swedish University of Agricultural Sciences',1,1,1,0,1,1,0,1,0,0,0,1,8,0,1,1,0,1,0,9,1,1,1,1,0,1,0,1,1,1,1,1,1,0,1,1,1,1,1,1,0,0,1,0,0,1,1,20.53,0,1,1,0,0,0,0,100,1,0,1,1,1,1,70,0,1,1,0,0,-0.718395,0,0,74.67
'University of Kansas',1,1,7,1,0,0,0,1,0,0,0,1,9,0,0,1,1,1,0,0,0,0,0,0,0,1,0,1,1,1,1,1,1,1,1,1,1,1,1,1,0,0,1,0,1,1,1,12.63,0,1,0,0,0,0,0,100,1,0,1,1,1,1,100,0,1,1,0,0,1.23321,3650,1,74.67
'Colgate University',1,1,5,1,0,0,0,0,0,0,0,1,9,1,0,1,1,1,1,10,0,0,0,0,1,1,0,1,1,1,1,1,1,1,1,1,1,0,1,1,0,0,1,0,1,1,1,21,0,1,1,0,0,0,1,75,1,0,1,0,1,0,100,0,1,0,0,0,-0.165975,3650,1,74.67
'University of Jaffna',1,1,9,1,0,0,0,0,1,1,1,1,5,1,0,1,0,1,1,11,0,0,0,0,0,1,0,1,1,1,1,1,1,1,1,1,1,0,1,0,0,0,1,0,1,1,1,10.17,0,1,1,0,0,0,0,90,1,1,1,1,1,1,66.7,0,1,0,0,0.693147,-0.742322,3650,1,74.66
'University of Virginia',1,1,5,1,0,0,0,0,0,0,1,1,5,1,0,1,1,1,1,3,1,1,0,0,1,1,0,1,1,1,1,1,1,1,1,1,0,0,1,0,0,0,0,0,1,1,1,5.74,0,1,1,0,0,0,0,75,1,0,1,1,1,1,79.2,0,1,1,0,0,1.94564,3650,1,74.62
'Orebro University',1,1,5,1,1,0,0,0,0,0,0,1,3,1,1,1,0,1,0,0,0,0,0,0,0,0,0,0,1,1,1,1,1,0,1,1,1,0,1,1,0,0,1,0,0,1,1,11.39,0,0,1,0,0,0,0,100,1,0,0,1,1,0,100,0,1,1,0,0,-1.00745,0,0,74.59
'Carleton University',1,1,10,1,0,0,0,0,0,0,1,1,5,0,0,1,1,1,1,4,1,1,0,0,1,1,0,1,1,1,1,1,1,1,1,1,1,1,1,1,0,0,0,0,1,1,0,12.63,0,1,1,0,0,0,0,90,1,0,1,1,1,1,42.1,0,1,1,0,0,-0.0317334,3650,1,74.56
'University of Nevada, Reno',1,1,5,1,0,0,0,1,0,0,0,0,0,0,0,1,1,1,1,0,0,1,0,1,1,1,0,1,1,1,1,1,1,1,1,1,1,1,1,1,0,0,1,0,0,1,1,11.2,0,1,1,0,0,0,0,75,1,0,0,1,1,1,78.6,0,1,1,0,0,-0.883175,3650,1,74.52
'Binghamton University',1,1,9,1,0,0,0,1,0,0,0,0,1,0,0,1,1,1,1,0,0,0,0,0,1,1,0,1,1,1,1,1,1,1,1,1,1,0,1,0,0,0,1,0,1,1,1,11.03,0,1,0,1,0,0,0,75,1,0,1,1,1,1,100,0,1,1,0,0,-0.785394,3650,1,74.5
'Cape Peninsula University of Technology',1,1,2,1,1,0,0,0,0,1,1,0,0,0,1,1,0,1,1,18,1,1,0,1,0,1,0,1,1,1,1,1,1,1,1,0,1,1,1,0,0,0,0,0,1,1,1,12.63,0,1,1,0,0,0,0,90,1,0,1,1,1,0,65.6,0,1,0,0,0,0.473917,0,0,74.48
'Central University of Rajasthan',1,1,10,1,0,0,1,1,1,1,1,0,1,0,1,1,1,1,1,7,1,1,1,0,0,1,0,1,1,1,1,1,1,0,1,0,1,0,1,1,0,0,0,0,1,1,0,19.26,0,1,1,1,0,1,0,75,1,0,0,1,1,1,44.4,0,1,1,0,0,-0.612457,0,0,74.41
'Tribhuvan Institute of Engineering',1,1,11,1,0,0,0,1,0,0,0,0,0,1,1,1,1,1,1,0,1,0,0,1,0,1,0,1,1,1,1,1,1,1,0,1,0,0,1,1,1,0,1,0,1,1,0,15.43,0,1,1,0,0,0,0,75,1,0,1,0,1,1,0,0,1,0,0,0,-0.919604,11,0,74.32
'Singapore Management University',1,1,8,1,0,0,1,1,1,0,1,0,0,0,1,1,1,1,1,1,1,1,0,1,1,1,0,1,1,1,1,1,1,0,1,0,1,1,1,0,0,0,1,0,1,1,1,21,0,1,1,0,0,0,0,75,1,0,0,0,1,1,80.7,0,1,1,0,0,-0.156427,0,0,74.27
'International Islamic University Islamabad',1,1,7,0,0,0,0,1,1,1,0,0,0,0,1,1,0,1,1,0,1,1,0,0,0,1,0,1,1,1,1,1,1,1,1,1,1,1,1,1,0,0,1,0,1,1,1,12.63,0,1,1,0,0,0,0,90,1,0,1,0,0,1,22.2,0,1,0,0,0,-0.710548,1,0,74.26
'Indian Institute of Science',1,1,1,1,1,0,0,1,1,1,1,1,10,1,1,1,0,1,1,3,0,0,0,1,0,1,0,1,1,1,1,1,1,1,1,0,1,1,1,1,0,0,0,0,1,1,0,21,0,1,1,0,0,0,0,75,1,0,0,0,1,1,40,0,1,0,0,0,-0.786806,0,0,74.26
'Kwansei Gakuin University',1,1,3,0,1,0,0,0,1,1,1,1,7,1,1,1,1,1,0,0,1,1,0,1,1,1,0,1,1,1,1,1,1,1,0,0,1,0,1,0,0,1,1,1,1,1,1,12.63,0,1,1,0,0,0,1,50,1,0,1,1,0,1,7.4,0,1,0,0,0,-0.183115,83,0,74.26
'Kyung Hee University',1,1,3,1,0,0,0,1,0,0,1,1,5,1,1,1,1,1,0,0,0,0,1,0,0,1,0,1,1,1,1,1,1,1,1,0,0,1,1,1,0,0,1,1,1,1,0,7.46,0,0,1,0,0,0,0,75,1,0,0,0,1,1,75.5,0,1,0,0,0,-0.0857924,53,0,74.24
'University of Ibadan',1,1,12,0,0,0,0,0,1,1,0,1,3,1,1,1,0,1,1,7,1,1,1,0,0,1,0,1,1,1,1,1,1,1,1,0,1,0,1,0,0,0,0,0,1,0,1,7.08,0,1,1,0,0,0,0,75,1,0,0,0,1,1,100,0,1,0,0,0,-1.55362,1,0,74.23
'Brawijaya University',1,1,7,1,1,0,1,1,1,1,1,1,5,1,1,1,1,1,1,1,0,0,0,1,1,1,0,1,1,0,1,1,1,1,1,0,1,1,1,0,0,0,0,1,1,1,1,12.63,0,1,1,0,0,0,0,75,1,0,1,0,1,1,62.1,0,1,0,0,0,-0.43495,1,0,74.22
'Public University of Navarre',1,1,5,1,1,0,0,1,0,0,0,1,10,1,0,1,0,1,1,2,1,1,0,0,0,1,0,1,1,1,1,1,1,1,1,1,1,0,1,0,0,0,1,1,1,1,1,18.58,0,1,0,0,0,0,0,75,1,0,0,1,1,0,64.8,0,1,0,0,0,-0.259466,3650,1,74.19
'University of Macedonia',1,1,8,1,0,0,0,0,0,0,0,0,0,1,1,1,1,1,1,0,1,1,1,1,1,1,0,1,0,1,1,1,1,1,1,0,1,0,1,1,0,0,1,0,1,1,1,1.54,0,1,1,0,0,0,0,75,1,14,0,1,1,1,100,0,1,1,0,2.70805,-0.578507,24,0,74.17
'Mackenzie Presbyterian University',1,1,8,1,1,1,0,0,1,3,0,1,2,0,1,1,1,1,0,0,0,0,0,1,0,1,0,1,1,0,1,1,1,0,1,0,1,1,1,1,1,1,0,0,1,1,1,12.63,0,1,1,1,0,0,1,75,1,0,1,0,1,1,16.7,0,1,0,0,0,-0.254801,77,0,74.16
'Indian Institute of Technology Palakkad',1,1,10,0,1,0,0,0,0,0,1,1,7,0,1,1,1,1,1,7,1,1,0,0,0,1,0,1,1,1,1,1,1,1,1,0,1,0,1,1,1,0,0,0,1,1,0,7.39,0,1,0,0,0,0,0,75,1,0,0,0,0,1,7.1,0,1,0,0,0,-0.744766,0,0,74.15
'National University of Uzbekistan',1,1,2,1,1,0,0,1,1,1,1,1,10,1,1,1,0,0,1,7,1,1,1,1,1,1,0,1,1,1,1,1,1,1,1,1,1,1,1,0,0,0,1,0,1,1,1,13.61,0,1,0,0,0,0,0,90,1,0,1,0,1,1,3.8,0,1,0,0,0,0.931265,1,0,74.1
'Leiden University',1,1,5,1,1,0,0,0,0,0,1,0,0,1,1,1,0,0,1,7,0,1,1,0,1,1,0,0,1,1,1,1,1,1,1,1,1,0,1,0,0,0,0,0,0,1,1,7.06,0,1,1,0,0,0,0,90,1,0,0,1,1,0,14.3,0,1,0,0,0,0.747467,0,0,74.09
UCLouvain,1,1,20,1,1,0,0,0,0,0,0,0,0,1,1,1,0,1,0,1,1,1,0,0,0,1,0,1,1,1,1,1,1,1,1,1,1,1,1,0,0,0,0,0,1,1,0,15.43,0,1,1,0,0,0,0,75,1,0,1,0,1,0,37.7,0,1,0,0,0,1.54478,1,0,74.05
'Boston College',1,1,3,0,0,0,0,1,0,0,1,1,4,1,0,1,1,1,1,6,1,1,0,1,0,1,0,1,1,1,1,1,1,1,1,1,1,1,1,0,0,0,0,0,1,1,1,7.46,0,1,1,0,0,0,1,75,1,0,1,1,1,1,93.8,0,1,1,0,0,-0.982614,3650,1,74.04
'Bocconi University',1,1,2,1,1,0,0,1,0,0,0,0,1,1,0,1,1,1,1,0,1,1,0,0,1,1,0,1,1,1,1,1,1,1,1,1,1,0,1,1,0,0,1,0,1,1,1,19.32,0,1,0,0,0,1,0,100,1,0,1,1,1,1,75,0,1,1,0,0,-0.406895,3650,1,74.03
'University of Primorska',1,1,6,1,0,0,0,1,0,0,1,0,0,1,0,1,1,1,1,0,0,0,0,0,0,1,0,0,1,1,1,1,1,1,1,0,1,1,1,0,0,0,1,0,0,1,1,9.79,0,1,1,0,1,0,0,100,1,0,1,1,1,1,71.4,0,1,1,0,0,-0.954693,3650,1,74.02
'Clarkson University',1,1,5,1,0,0,0,1,1,1,1,0,0,0,0,1,1,1,1,0,0,0,0,1,1,1,0,1,1,1,1,1,1,1,1,0,1,1,1,1,0,0,1,0,1,1,1,9.68,0,1,1,1,0,0,0,75,1,0,1,1,1,1,88.9,0,1,1,0,0,-0.159553,3650,1,74
'Panjab University',1,1,1,0,0,0,1,1,1,1,0,0,0,1,1,1,0,1,1,0,0,1,0,1,0,1,0,1,1,1,1,1,1,1,1,1,1,0,1,1,0,0,1,1,1,1,1,15.43,0,1,0,0,0,0,0,75,1,0,1,1,0,1,100,0,1,0,0,0,-0.0408527,7,0,73.91
'De La Salle University',1,1,3,1,0,0,0,1,1,1,1,0,0,1,0,1,1,1,1,0,1,1,0,1,0,1,0,1,1,1,1,1,1,1,1,1,1,1,1,1,0,0,1,0,1,1,1,21,0,1,1,0,0,1,0,75,1,0,1,1,1,1,2.6,0,1,0,0,0,-0.327193,3650,1,73.85
'Igor Sikorsky Kyiv Polytechnic Institute',1,1,7,0,0,0,0,0,1,0,1,1,2,1,1,1,0,1,1,9,1,0,1,1,1,1,0,1,1,1,1,1,1,1,0,0,1,0,0,0,0,1,0,1,1,1,0,9.74,0,1,1,0,0,0,0,75,1,0,1,1,1,0,88.5,0,1,0,0,0,-0.510973,11,0,73.84
'University of Strathclyde',1,1,3,1,0,0,0,0,0,0,1,1,7,1,0,1,0,1,1,0,1,1,1,0,1,1,0,1,1,1,1,1,1,1,1,1,1,1,1,0,0,0,0,0,0,1,1,21,0,1,1,1,0,1,1,75,1,0,1,1,1,1,84.2,0,1,1,0,0,-0.972284,3650,1,73.76
'Gdansk University of Technology',1,1,4,1,1,0,1,1,1,1,1,0,0,0,0,1,1,1,0,0,1,1,0,0,0,1,0,1,1,1,1,1,1,1,1,1,1,1,1,1,0,0,0,0,0,1,1,10.73,0,1,1,0,0,1,0,100,1,1,0,0,1,1,67.4,0,1,1,0,0.693147,-1.04372,3650,1,73.71
'Williams College',0,1,4,0,1,0,0,0,0,0,0,1,10,1,1,1,0,1,1,15,1,1,1,1,1,1,1,1,1,0,1,1,1,1,0,1,1,1,1,0,0,1,1,0,1,1,1,21,0,1,0,0,0,0,0,90,1,2,1,0,1,1,100,0,1,1,0,1.09861,0.34924,0,0,73.54
'University of Nebraska-Lincoln',1,1,6,1,0,1,0,1,0,0,1,0,1,1,0,1,1,1,1,3,1,1,0,1,0,1,0,1,1,1,1,1,1,0,1,1,1,1,1,0,0,0,0,0,1,1,0,10.05,0,1,0,0,0,0,1,100,1,1,1,0,1,1,86.4,0,1,1,0,0.693147,-0.51691,3650,1,73.52
'Sts. Cyril and Methodius University Skopje',1,1,10,1,1,0,0,1,1,1,1,1,8,1,1,1,1,1,1,0,0,0,1,1,1,1,0,1,1,1,1,1,1,1,1,0,1,0,1,0,0,0,0,0,1,1,0,15.43,0,1,0,0,0,0,0,90,1,0,0,0,1,1,80,0,1,0,0,0,0.777374,70,0,73.49
'Obafemi Awolowo University',1,1,4,1,1,0,0,0,1,1,1,0,0,1,1,1,1,1,1,0,0,0,0,0,1,1,0,1,1,1,1,1,1,0,1,1,1,0,1,0,0,0,0,0,1,1,0,21,0,1,1,0,0,0,0,75,1,0,1,0,1,1,81.8,0,1,0,0,0,-0.634587,1,0,73.48
'Hamilton College',1,1,3,1,0,0,0,0,0,0,1,1,3,0,0,1,1,1,1,1,1,1,0,1,1,1,0,1,1,1,1,1,1,1,1,1,1,1,1,0,0,0,1,0,1,1,1,1,0,1,0,0,0,0,0,100,1,0,1,1,1,1,95.5,0,1,1,0,0,-0.117085,3650,1,73.48
'University of Texas at Austin',1,1,5,1,0,0,0,1,0,0,1,1,7,0,0,1,1,1,0,0,1,0,0,1,1,1,0,1,1,1,1,1,1,1,1,1,1,0,1,0,0,0,0,0,1,1,1,15.32,0,1,0,0,0,0,0,100,1,0,1,1,1,1,77.8,0,1,1,0,0,-0.382461,3650,1,73.48
'Bahauddin Zakariya University',1,1,20,1,0,0,0,1,1,1,1,1,10,1,0,1,1,1,1,0,1,1,0,0,0,1,0,1,1,1,1,1,1,1,1,1,1,1,1,1,1,0,0,0,0,0,0,3.9,0,1,0,1,0,0,0,75,1,0,1,1,0,1,93.8,0,1,0,0,0,0.206006,3650,1,73.44
'Bielefeld University',1,1,7,1,0,0,0,0,0,0,0,1,3,1,1,1,1,1,1,3,1,1,1,0,0,1,0,1,0,0,1,1,1,0,1,1,1,1,1,1,0,0,0,0,1,1,1,21,0,1,0,0,0,0,1,90,1,0,1,1,1,0,100,0,1,1,0,0,-0.692449,0,0,73.4
'Kanazawa University',1,1,8,1,1,0,0,0,1,1,0,1,8,1,1,1,0,1,0,5,1,1,0,1,1,1,0,1,1,1,1,1,1,0,0,1,1,0,1,0,0,0,1,1,1,1,1,9.52,0,1,1,1,0,0,0,75,1,0,1,1,1,1,1.8,0,1,0,0,0,0.0534693,7,0,73.28
'Suranaree University of Technology',1,1,6,1,1,0,0,1,1,1,0,0,0,0,1,1,1,1,0,0,1,0,0,0,0,1,0,1,1,1,1,1,1,1,1,0,1,1,1,1,0,0,1,0,0,1,0,13.08,0,1,1,0,0,0,0,20,1,0,1,0,1,1,60.7,0,0,0,0,0,-1.87492,0,0,73.24
'Helwan University',1,1,8,1,1,0,0,1,1,1,1,0,1,0,1,1,1,1,0,0,1,0,0,1,0,1,0,1,1,1,1,1,1,1,1,0,1,0,1,0,0,0,0,0,1,1,0,14.94,0,1,1,0,1,1,0,75,1,1,1,1,1,1,100,0,1,0,0,0.693147,-0.0173647,89,0,73.23
'Scripps College',1,1,3,1,0,0,0,0,0,1,1,1,5,0,0,1,0,1,1,11,1,1,0,0,0,1,0,1,1,1,1,1,1,1,1,1,0,1,1,0,0,0,1,0,1,1,1,12.63,0,1,1,0,0,1,1,75,1,1,1,1,1,1,35.7,0,1,1,0,0.693147,-0.655088,3650,1,73.22
'University of Bristol',1,1,4,1,0,0,1,1,0,0,1,1,2,1,1,1,0,0,1,4,0,0,1,0,0,1,0,0,1,1,1,1,1,0,1,1,1,1,1,0,0,0,1,0,1,1,1,12.63,0,1,1,0,0,0,1,75,1,0,0,1,1,1,100,0,1,1,0,0,-1.08868,5,0,73.22
'Indian Institute of Technology Patna',1,1,7,0,0,0,0,1,0,0,1,1,5,1,1,1,0,1,1,0,0,0,1,1,1,1,0,1,1,1,1,1,1,1,1,0,1,0,1,1,0,0,0,1,1,1,1,21,0,1,1,0,0,1,0,75,1,8,1,1,1,1,100,0,1,0,0,2.19722,-0.0954386,0,0,73.18
'NIT Tiruchirappalli',1,1,8,0,0,1,0,1,0,0,1,1,2,1,1,1,0,1,1,2,1,0,0,1,0,1,0,1,1,1,1,1,1,1,1,0,1,0,1,1,0,0,0,1,1,1,0,12.63,0,1,1,0,0,1,1,90,1,0,0,0,1,0,33.3,0,1,0,0,0,-0.312642,0,0,73.17
'Indian Institute of Technology ISM Dhanbad',1,1,12,1,1,0,1,1,0,0,0,1,3,1,1,1,0,1,1,12,1,1,1,0,1,1,0,1,1,1,1,1,1,0,1,0,1,1,1,0,0,0,1,0,1,1,1,14.74,0,1,1,1,0,0,0,75,1,0,0,0,1,1,1.7,0,1,1,0,0,0.273627,50,0,73.11
'Australian National University',1,1,8,1,0,0,0,0,0,0,1,0,0,0,0,1,1,1,1,0,1,1,0,1,0,1,1,1,1,1,1,1,1,1,1,1,1,1,1,0,0,0,0,0,1,1,0,21,0,1,1,0,0,1,0,75,1,0,1,1,1,1,52.8,0,1,1,0,0,-0.829008,3650,1,73.08
'Indian Institute of Technology Bhilai',1,1,9,1,1,0,0,0,0,0,1,1,2,1,1,1,1,1,1,1,1,1,1,0,0,1,0,1,1,1,1,1,1,1,0,0,1,0,1,1,0,0,0,1,1,1,0,12.63,0,1,0,0,0,0,1,20,1,0,0,1,1,0,81.5,0,1,0,0,0,1.63094,0,0,73.07
'Hiroshima University',1,1,1,1,1,0,0,0,0,0,1,0,0,0,1,1,0,1,1,0,1,1,0,0,1,1,0,1,1,1,1,1,1,0,1,1,1,1,1,0,1,0,0,1,1,1,0,12.63,0,1,1,0,0,0,0,75,1,0,0,1,1,0,10.8,0,1,0,0,0,-1.54824,7,0,73.04
'McGill University',0,1,7,1,1,0,1,1,0,0,1,0,0,1,0,1,0,1,1,0,0,0,0,1,0,1,0,1,1,1,1,1,1,1,1,1,1,1,1,0,0,0,0,0,1,1,0,21,0,1,0,0,0,0,0,75,1,0,1,0,1,1,100,0,1,1,0,0,-1.78164,3650,1,73.01
'University of Ilorin',1,1,4,1,0,0,0,0,1,0,1,0,1,1,0,1,1,1,1,10,1,1,0,0,1,1,0,1,1,1,1,1,1,1,1,1,1,0,1,0,0,0,1,0,1,1,1,2.49,0,1,1,0,0,0,0,90,1,0,1,0,1,1,41.5,0,1,0,0,0,-0.939201,3650,1,72.96
'North Carolina State University',0,1,5,1,0,0,1,1,0,0,0,1,5,0,0,1,1,1,1,16,1,1,0,0,0,1,0,1,1,1,1,1,1,0,1,1,1,1,1,0,0,0,1,0,1,1,1,12.63,0,1,0,0,0,0,0,90,1,0,1,1,1,1,85,0,1,1,0,0,-1.01928,3650,1,72.96
'University of South Carolina',1,1,9,1,0,0,0,0,0,0,1,0,0,0,0,1,1,1,1,0,1,1,0,1,1,1,0,1,1,1,1,1,1,1,1,1,1,0,1,0,0,0,0,0,1,1,1,15.91,0,1,1,0,0,0,0,75,1,0,1,1,0,1,66.7,0,1,1,0,0,-0.433631,3650,1,72.92
'Netaji Subhas University of Technology',1,1,13,0,1,0,0,1,1,0,0,0,0,1,1,1,0,1,1,0,1,1,1,0,1,1,1,1,1,1,1,1,1,1,1,1,1,0,1,0,1,0,0,0,0,1,1,1.63,0,1,1,0,0,1,0,75,1,1,0,0,1,0,69.6,0,1,0,0,0.693147,-0.70843,0,0,72.88
'Ajou University',1,1,3,0,1,0,0,1,1,0,1,0,0,1,1,1,1,1,0,0,1,1,1,1,0,1,0,1,1,1,1,1,1,1,1,1,1,1,1,1,0,0,1,1,1,1,1,12.63,0,1,1,0,0,1,0,75,1,0,0,0,1,1,100,0,1,0,0,0,2.0531,897,0,72.86
'Rajarata University of Sri Lanka',1,1,7,1,0,0,0,0,1,1,1,1,6,1,1,1,0,0,1,1,1,1,0,1,1,1,0,1,1,1,1,1,1,0,1,1,1,0,1,0,0,0,1,1,1,1,1,12.63,0,1,1,0,0,0,0,90,1,0,1,1,1,1,82.9,0,1,0,0,0,-0.376515,0,0,72.86
'Poznan University of Technology',1,1,0,1,1,0,0,0,0,0,1,0,0,0,1,1,1,1,1,1,1,1,0,1,1,1,0,1,0,1,1,1,1,1,1,1,1,1,1,1,0,0,1,0,0,1,1,1.51,0,1,1,0,0,1,0,75,1,0,0,0,1,1,72,0,1,0,0,0,-0.60287,49,0,72.83
'University of Southern Queensland',1,1,1,1,0,0,0,0,0,0,1,0,0,0,0,1,1,1,1,0,0,0,0,0,0,1,0,1,1,1,0,1,1,1,1,1,1,1,1,0,0,1,0,0,1,1,1,14.94,0,1,1,0,0,0,0,100,1,0,1,1,1,1,80,0,1,0,0,0,0.582567,3650,1,72.76
'Vassar College',1,1,5,1,0,0,0,0,1,1,1,1,5,1,0,1,1,1,1,1,1,1,0,0,1,1,0,1,1,1,1,1,1,1,1,1,0,0,0,0,0,0,0,0,1,1,1,8.86,0,1,1,0,0,0,0,100,1,0,1,1,1,1,100,0,1,0,0,0,-1.29688,3650,1,72.75
'Leibniz University Hannover',1,1,20,1,1,0,0,0,0,0,1,1,5,0,1,1,1,1,1,2,1,1,1,0,0,1,0,1,0,0,1,1,1,1,1,1,1,1,1,0,0,0,0,1,1,1,0,19.8,0,1,1,0,0,0,0,75,1,0,1,1,1,0,95.2,0,1,1,0,0,-0.309797,22,0,72.75
'Duke University',1,1,3,1,0,0,0,0,0,1,0,0,1,0,0,1,1,1,0,0,1,1,0,1,1,1,0,1,1,1,1,1,1,1,1,1,1,1,1,0,0,0,1,0,0,1,1,21,0,1,1,0,0,0,0,90,1,0,1,1,1,1,97.2,0,1,1,0,0,1.41551,3650,1,72.73
'Baylor University',1,1,2,1,0,0,0,1,0,0,0,1,10,1,1,1,1,1,1,3,0,0,0,0,0,1,0,1,1,1,1,1,1,1,1,0,1,0,0,0,0,0,0,0,1,1,1,21,0,1,0,0,0,0,0,75,1,0,1,1,1,1,29.2,0,1,1,0,0,-0.144638,0,0,72.73
'Universiti Malaysia Sabah',1,1,7,1,1,1,1,1,0,0,1,1,10,0,0,0,1,1,0,0,0,0,0,1,1,1,0,1,1,1,1,1,1,1,1,1,1,1,1,0,0,0,0,0,1,1,1,15.5,0,1,1,1,0,0,0,75,1,0,0,1,1,0,62.2,0,1,1,0,0,1.02369,3650,1,72.71
'University of Rwanda',1,1,5,1,0,0,0,1,0,0,1,1,8,1,1,1,1,1,1,0,1,1,1,1,1,1,0,1,1,1,1,1,1,0,1,0,0,0,1,0,1,0,1,0,1,1,1,3.54,0,1,1,0,0,0,0,75,1,0,1,0,1,0,60,0,1,0,0,0,-0.0822986,0,0,72.7
'Universiti Utara Malaysia',1,1,5,0,0,0,0,1,1,1,0,1,5,0,1,1,0,1,0,3,1,0,1,0,0,1,0,1,1,1,1,1,1,1,1,1,1,1,0,0,0,0,1,0,1,1,1,21,0,1,1,0,0,0,0,75,1,0,1,1,1,1,93.3,0,1,1,0,0,-0.458428,127,0,72.69
'BI Norwegian Business School',1,1,2,1,1,0,0,1,1,1,0,0,0,0,1,1,0,1,1,0,1,1,0,1,0,1,0,0,1,0,1,1,1,1,1,0,1,1,1,1,0,1,0,0,1,1,1,21,0,1,0,0,0,0,0,90,1,0,1,1,1,1,85.7,0,1,0,0,0,-0.194613,0,0,72.6
'Warsaw University of Life Sciences',1,1,10,1,1,0,0,1,1,1,0,1,9,0,1,1,0,1,1,5,1,1,1,0,0,1,0,1,1,1,1,1,1,0,0,0,0,1,1,1,0,0,1,1,1,1,1,21,0,1,1,0,0,0,0,90,1,0,1,0,1,0,51.4,0,1,1,0,0,0.863538,0,0,72.59
'Harvard University',1,1,1,1,0,0,0,0,1,1,1,0,0,1,0,1,0,1,1,0,1,1,0,0,0,1,0,1,1,1,1,1,1,1,1,1,1,1,1,0,0,0,0,0,1,1,1,15.13,0,1,0,0,0,0,0,90,1,0,1,1,1,1,76.2,0,1,1,0,0,-1.52621,3650,1,72.56
'Autonomous University of Barcelona',1,1,5,1,0,0,1,1,0,0,1,1,8,1,0,1,0,1,0,0,0,0,0,1,0,1,0,1,1,1,1,1,1,1,1,0,1,1,1,1,0,0,1,1,0,1,1,18.73,0,1,0,0,0,1,0,75,1,0,1,1,1,0,100,0,1,1,0,0,-0.0172737,3650,1,72.56
'University of the Punjab',1,1,6,0,0,0,0,1,0,0,1,1,7,1,0,1,1,1,1,0,1,1,0,0,1,1,0,1,1,1,1,1,1,1,1,1,1,1,1,0,0,0,0,1,1,1,1,21,0,1,1,1,0,0,0,75,1,0,1,0,1,1,17.1,0,1,1,0,0,0.507287,3650,1,72.55
'University of Tours',1,1,13,1,1,0,0,0,1,1,1,1,10,1,0,1,1,1,1,0,1,1,0,0,0,1,1,1,1,1,1,1,1,0,1,1,1,1,1,1,0,0,0,1,1,0,1,11.05,0,1,1,0,0,0,1,75,1,0,1,1,1,0,90.9,0,1,0,0,0,-0.336228,3650,1,72.5
'Princeton University',1,1,0,1,0,0,0,0,1,1,1,0,1,1,1,1,1,1,1,0,1,1,0,0,0,1,0,1,1,0,1,1,1,1,1,1,1,1,1,0,0,0,1,0,1,1,1,8.86,0,1,0,0,0,0,0,90,1,0,1,1,1,1,87.5,0,1,1,0,0,-1.70665,5,0,72.48
'Okayama University',1,1,5,1,0,0,0,0,0,0,0,0,0,0,1,1,0,1,1,1,1,0,0,0,0,1,0,1,1,1,1,1,1,0,1,1,1,0,1,0,0,0,1,1,1,1,1,4.17,0,1,1,0,0,0,0,75,1,1,0,1,1,0,65.7,0,1,0,0,0.693147,-0.218432,0,0,72.43
'University of Wroclaw',1,1,2,1,1,0,0,1,0,0,0,0,0,0,1,1,0,1,0,0,1,0,0,1,0,1,0,1,1,1,1,1,1,1,1,0,1,1,1,1,0,0,1,1,0,1,1,21,0,1,1,0,0,0,0,90,1,6,1,0,1,0,75,0,1,1,0,1.94591,1.35992,23,0,72.42
'University of Ottawa',1,1,4,0,1,0,0,0,0,0,1,1,3,0,1,1,0,1,1,0,1,1,0,1,0,1,0,1,1,1,1,1,1,0,1,1,1,1,1,1,0,0,1,0,0,1,1,13.79,0,1,1,0,0,0,0,100,1,0,1,1,1,1,88.9,0,1,1,0,0,0.0826208,0,0,72.37
'Baylor College of Medicine',1,1,5,1,0,1,0,0,1,1,1,0,0,0,0,1,1,1,1,0,0,0,0,0,0,1,0,1,1,1,1,1,1,1,0,1,1,1,1,1,0,0,1,0,1,1,1,12.63,0,1,1,0,0,0,0,100,1,0,0,1,1,0,100,0,1,0,0,0,0.467531,3650,1,72.36
'University of Oklahoma',1,1,7,1,0,0,0,1,0,0,1,0,0,1,1,1,1,1,1,0,1,1,1,1,1,1,1,1,1,1,1,1,1,1,1,0,1,0,0,0,0,0,0,0,1,1,0,12.98,0,1,0,0,0,0,0,75,1,0,1,1,0,1,100,0,1,1,0,0,0.564069,4,0,72.35
'Bahir Dar University',1,1,7,1,0,0,0,0,0,1,0,0,0,1,1,1,0,1,1,9,1,1,0,0,0,1,0,1,1,1,1,1,1,1,1,0,0,0,0,1,0,0,1,0,1,1,1,21,0,1,1,0,0,0,0,75,1,0,1,0,1,1,84.2,0,1,0,0,0,0.118253,12,0,72.32
'University of California, Riverside',0,1,4,1,0,0,0,1,0,0,1,1,10,0,1,1,1,1,1,5,1,1,1,1,1,1,0,1,1,0,1,1,1,1,1,1,1,1,0,0,0,0,1,0,1,1,1,7.24,0,1,0,0,0,0,1,100,1,0,1,1,1,1,86.7,0,1,1,0,0,1.64919,0,0,72.29
'Uppsala University',1,1,4,1,1,0,0,0,0,0,0,1,9,0,1,1,0,1,0,20,1,1,1,1,0,1,0,0,1,1,1,1,1,0,1,1,1,1,1,0,0,0,1,0,1,1,0,6.93,0,1,1,0,0,0,0,90,1,0,1,1,1,1,31,0,1,0,0,0,3.17772,0,0,72.2
'TU Wien',1,1,3,1,1,0,0,0,0,1,1,1,10,1,1,1,0,1,1,12,1,1,1,1,0,1,0,1,1,0,1,1,1,0,1,1,0,1,1,1,0,0,0,0,1,1,1,19.43,0,1,0,0,0,1,1,100,1,0,1,1,1,0,93.3,0,1,1,0,0,-0.477601,1,0,72.16
'University of Santiago de Compostela',1,1,10,1,1,0,0,0,0,0,0,0,0,0,1,0,1,1,0,17,1,1,1,0,0,1,0,1,0,1,1,1,1,1,0,0,1,0,1,1,0,0,0,0,0,1,1,18.73,0,1,1,0,0,0,0,75,1,0,1,0,1,0,100,0,1,1,0,0,-1.42958,0,0,72.08
'University of Colombo',1,1,9,1,0,0,0,1,0,0,1,1,10,1,0,1,0,1,1,20,1,1,0,1,0,1,0,1,1,1,1,1,1,1,1,1,1,0,1,0,0,0,0,0,1,1,1,5.74,0,1,1,0,0,0,0,75,1,0,1,0,1,1,93.8,0,1,0,0,0,-0.654496,3650,1,72.01
'University of Madeira',1,1,2,1,1,0,0,0,1,1,0,1,8,0,1,1,1,1,0,1,0,0,0,1,0,1,0,1,1,1,0,1,1,0,1,0,1,0,1,0,0,1,1,0,1,1,1,19.63,0,1,1,0,0,0,1,75,1,0,1,0,1,0,100,0,1,0,0,0,-1.40737,0,0,71.92
'Tajik National University',1,1,9,1,1,0,0,0,0,0,0,1,10,1,1,1,0,1,0,14,0,0,1,0,0,1,0,1,1,1,1,1,1,1,1,1,0,0,1,0,0,0,0,0,0,1,0,21,0,1,0,0,0,0,0,75,1,15,1,0,1,1,14.3,0,1,0,0,2.77259,2.3637,98,0,71.78
'University of Exeter',1,1,7,1,0,0,1,1,0,0,1,0,0,0,0,1,1,0,1,0,0,0,0,1,0,1,0,0,1,1,1,1,1,1,1,1,1,1,1,0,0,0,0,1,1,1,1,12.63,0,1,1,0,0,1,0,75,1,0,1,1,1,1,100,0,1,1,0,0,-1.28801,3650,1,71.74
'Flinders University',1,1,8,1,0,0,0,1,1,2,1,0,0,0,1,1,0,1,1,0,1,1,0,1,1,1,0,1,1,1,1,1,1,0,1,1,1,1,1,0,0,0,0,0,0,1,0,12.63,0,1,1,0,0,0,1,75,1,0,1,1,1,1,21.9,0,1,1,0,0,0.292366,6,0,71.68
'Vellore Institute of Technology',1,1,8,0,0,0,1,1,0,0,1,0,0,1,0,1,0,1,1,20,1,1,1,0,1,1,0,1,1,1,1,1,1,1,1,1,1,0,1,1,0,0,0,1,1,1,1,12.63,0,1,1,0,0,0,0,90,1,0,1,1,1,1,22.9,0,1,0,0,0,2.04856,3650,1,71.67
'Indian Institute of Technology Mandi',1,1,6,0,0,0,0,1,0,0,1,0,0,1,1,1,0,1,0,0,1,1,1,0,0,1,0,1,1,1,1,1,1,0,1,1,1,1,1,1,0,0,1,0,1,1,1,15.43,0,1,1,0,0,0,0,75,1,0,0,1,1,1,45,0,1,0,0,0,-1.27417,0,0,71.63
'Tokushima University',1,1,4,0,0,0,0,0,1,1,1,0,0,0,1,1,1,1,0,4,1,1,1,0,1,1,0,1,1,1,1,1,1,1,0,0,1,0,1,0,1,0,1,0,1,1,1,21,0,1,1,0,0,0,0,75,1,2,1,0,1,0,17.4,0,1,1,0,1.09861,0.577807,8,0,71.63
'University of Kentucky',0,1,4,1,0,1,0,1,1,1,0,1,6,0,0,1,1,1,0,0,0,0,0,0,0,1,0,1,1,1,1,1,1,1,1,1,1,1,1,0,0,0,0,0,1,1,0,21,0,1,0,0,0,0,0,100,1,0,0,0,1,1,75,0,1,1,0,0,1.10145,3650,1,71.59
'Keio University',1,1,0,0,0,0,0,1,0,0,1,1,10,1,1,1,0,1,1,0,1,1,0,1,0,1,0,1,1,1,1,1,1,1,1,1,1,0,1,0,0,0,0,1,1,1,1,17.1,0,1,1,0,0,0,0,75,1,0,1,1,1,0,21.5,0,1,1,0,0,-0.05188,4,0,71.54
'University of Hamburg',1,1,4,1,1,0,0,0,0,0,0,1,2,1,1,1,1,1,1,2,1,1,1,0,1,1,0,0,1,0,1,1,1,0,1,1,1,0,1,0,0,0,0,1,1,1,1,8.32,0,1,1,0,0,1,0,100,1,0,1,1,0,1,100,0,1,1,0,0,1.24094,0,0,71.45
'University of Yangon',1,1,9,1,1,1,0,0,1,2,1,1,4,0,0,1,0,1,1,0,0,0,1,1,0,1,0,1,1,1,1,1,1,1,1,0,0,1,1,0,1,0,1,0,1,1,0,12.63,0,1,1,0,0,1,0,90,1,0,1,0,1,1,3.4,0,0,0,0,0,-1.04457,3650,1,71.44
'Southern Methodist University',0,1,4,1,0,0,0,1,0,0,0,0,0,0,1,1,1,1,1,6,1,1,0,0,1,1,1,1,1,0,1,1,1,1,1,1,1,1,1,0,0,0,0,0,1,1,1,5.74,0,1,0,1,0,0,0,75,1,0,1,1,0,1,21.1,0,1,0,0,0,0.515178,0,0,71.4
'University of Delaware',1,1,4,1,0,0,0,1,0,0,1,1,4,1,0,1,0,1,1,0,0,0,0,0,1,1,0,1,1,1,1,1,1,1,1,1,1,0,1,0,0,0,0,0,1,1,1,10.89,0,1,1,0,0,0,0,90,1,0,1,1,1,0,94.4,0,1,1,0,0,0.102716,3650,1,71.39
'University of Opole',1,1,8,0,1,0,0,0,0,0,1,1,10,1,1,1,1,1,1,0,0,0,1,1,0,1,0,1,1,1,1,1,1,1,0,0,0,1,1,0,0,0,1,0,1,1,1,12.63,0,1,1,0,0,0,0,90,1,0,0,0,1,0,71.1,0,1,1,0,0,0.441494,13,0,71.38
'Hanze University of Applied Sciences',1,1,5,1,1,1,0,0,1,1,1,0,0,0,1,1,0,1,1,15,1,1,1,1,1,1,0,0,0,0,1,1,1,1,0,1,1,1,1,1,0,0,0,0,0,1,1,12.63,0,1,0,0,0,0,1,100,1,0,1,0,1,1,99.2,0,1,0,0,0,0.152635,0,0,71.36
'Kobe University',1,1,3,0,0,0,0,0,1,1,0,1,10,1,0,1,1,1,1,1,0,0,0,1,0,1,0,1,1,1,1,1,1,1,1,1,1,0,1,0,0,0,1,1,1,1,1,15.91,0,1,1,0,0,0,1,75,1,0,1,1,1,0,19.5,0,1,0,0,0,-0.307126,3650,1,71.35
'Lulea University of Technology',1,1,8,1,1,0,0,0,0,0,0,0,1,0,1,1,1,1,0,11,1,1,1,0,0,1,0,0,1,0,1,1,1,0,1,1,0,1,1,0,0,0,1,0,0,1,1,16.86,0,1,1,0,0,0,0,75,1,0,1,1,1,1,87.5,0,1,1,0,0,0.0595182,0,0,71.34
'Imperial College London',1,1,10,1,0,0,1,1,0,0,1,0,0,1,0,1,0,0,1,0,1,1,0,0,0,1,0,1,1,1,1,1,1,1,1,1,1,1,1,0,0,0,1,1,1,1,1,17.51,0,1,0,0,0,0,0,100,1,0,1,1,1,1,20,0,1,1,0,0,-0.834306,3650,1,71.31
'Hasselt University',1,1,5,1,1,0,0,1,0,0,0,1,8,0,0,0,0,1,0,1,1,0,0,1,0,1,0,1,1,1,1,1,1,0,1,1,1,1,1,1,0,1,0,0,1,1,0,21,0,1,0,0,0,0,1,90,1,0,0,1,1,1,97.3,0,1,0,0,0,-0.408733,3650,1,71.3
'Simon Fraser University',1,1,5,1,0,0,0,1,0,0,1,0,0,0,0,1,0,1,1,1,1,1,0,1,1,1,0,1,1,1,1,1,1,1,1,1,1,0,1,1,0,0,0,0,1,1,1,21,0,1,1,0,0,0,1,90,1,0,1,1,1,1,41,0,1,0,0,0,0.842497,3650,1,71.25
'Jomo Kenyatta University of Agriculture and Technology',1,1,7,1,0,0,0,0,1,1,1,1,2,1,0,1,0,1,1,1,1,1,0,1,0,1,0,1,1,1,1,1,1,1,1,1,1,1,1,0,0,0,0,0,1,1,0,21,0,1,1,0,0,0,0,75,1,0,1,0,0,0,90,0,1,0,0,0,-0.123391,3650,1,71.2
'Copperbelt University',1,1,20,1,0,0,0,1,1,0,0,1,3,1,0,1,1,1,0,2,1,1,0,1,1,1,0,1,1,1,1,1,1,1,1,1,1,1,1,1,0,0,0,0,1,1,1,1,0,1,1,0,0,0,0,75,1,0,0,1,1,1,45.5,0,1,0,0,0,-0.826864,3650,1,71.14
'Ghent University',1,1,20,1,1,0,0,0,0,0,0,1,2,0,0,1,1,1,1,1,1,1,1,0,0,1,0,1,1,1,1,1,1,1,1,1,1,0,0,1,0,0,0,0,1,1,1,12.63,0,1,1,0,0,0,0,100,1,0,1,1,1,0,100,0,1,1,0,0,-0.0292337,3650,1,71.13
'Silliman University',1,1,7,1,0,0,0,1,1,2,1,1,2,0,1,1,1,1,1,0,0,0,0,1,1,1,0,1,1,0,1,1,1,1,1,1,1,1,1,1,0,0,0,0,1,1,0,5.74,0,1,1,1,0,1,0,90,1,3,1,0,1,1,96.7,0,1,0,0,1.38629,-0.369533,5,0,71.12
'Hanyang University',1,1,1,1,1,0,0,1,0,0,1,1,10,1,0,1,1,1,0,0,1,1,0,0,1,1,0,1,1,1,1,1,1,1,1,0,1,1,1,0,1,0,0,0,1,1,0,12.63,0,1,1,0,0,0,0,100,1,0,1,0,1,1,88.9,0,1,0,0,0,0.386975,3650,1,71
'Chinese University of Hong Kong',1,1,20,1,0,0,0,1,0,0,1,0,0,0,1,1,0,1,1,1,1,1,1,0,0,1,0,1,1,1,1,1,1,0,1,0,1,0,1,0,0,0,0,1,1,1,1,6.29,0,1,1,0,0,0,0,75,1,15,0,1,1,1,89.4,0,1,1,0,2.77259,-0.642438,0,0,70.97
'University of Warwick',1,1,1,1,0,0,1,1,0,0,1,0,1,0,1,1,1,0,1,2,1,1,1,1,0,1,0,1,1,1,1,1,1,0,1,1,1,1,1,1,0,0,0,0,1,1,1,19.56,0,1,1,0,0,0,0,90,1,0,1,1,1,1,25.9,0,1,1,0,0,-1.248,11,0,70.96
'University of Eastern Finland',1,1,11,1,1,0,0,0,0,0,0,1,10,0,1,1,0,1,0,20,1,1,1,0,0,1,0,0,1,1,0,1,1,0,1,1,1,1,1,0,0,0,0,0,1,1,1,21,0,1,1,0,0,1,0,100,1,0,1,1,1,1,52.7,0,1,0,0,0,0.0350266,0,0,70.95
'University of British Columbia',0,1,9,1,0,0,0,0,0,0,0,0,0,0,0,1,1,1,1,0,0,0,0,0,0,0,0,1,1,1,1,1,1,0,1,1,1,1,1,0,0,0,0,0,1,1,1,15.91,0,0,0,0,0,0,0,100,1,1,1,1,1,1,100,0,1,1,0,0.693147,-0.361538,3650,1,70.94
'DePaul University',1,1,3,1,0,0,0,0,1,1,0,1,10,0,0,1,1,1,1,0,1,1,0,1,1,1,0,1,1,1,1,0,1,1,1,1,1,1,1,0,0,0,1,0,1,1,1,17.04,0,1,1,0,0,0,0,100,1,0,1,0,1,1,71.4,0,1,1,0,0,-0.00728816,3650,1,70.88
'Czech University of Life Sciences Prague',1,1,6,1,0,0,0,0,0,0,1,0,0,1,1,1,1,0,1,5,1,1,1,0,0,1,0,1,1,1,1,1,1,0,1,0,1,1,1,0,0,0,1,0,1,1,1,15.43,0,1,1,0,0,0,0,75,1,0,1,0,1,0,11.1,0,1,0,0,0,-0.62974,13,0,70.79
'University of Messina',1,1,6,1,0,0,0,1,1,1,0,0,0,0,1,1,1,1,0,0,1,1,0,0,1,1,0,1,1,1,0,1,1,1,0,0,0,1,1,1,0,0,1,1,0,1,1,15.43,0,1,1,0,0,0,0,100,1,0,1,0,1,0,100,0,1,0,0,0,-1.13096,0,0,70.77
'University of Zimbabwe',1,1,7,1,0,0,0,0,0,0,0,1,6,1,0,1,0,1,1,0,0,0,0,0,0,1,0,1,1,1,1,1,1,0,1,1,1,0,1,1,0,1,0,0,1,1,0,5.33,0,1,0,0,0,0,0,75,1,1,1,1,1,1,47.8,0,1,0,0,0.693147,-0.191129,3650,1,70.73
'Bucharest University of Economic Studies',1,1,6,1,1,0,0,1,0,0,0,0,0,0,0,1,1,0,1,0,0,0,0,1,0,1,0,0,1,1,1,1,1,1,1,1,0,1,1,1,0,0,1,1,1,1,1,15.52,0,1,1,0,0,0,0,90,1,0,1,0,1,0,52.6,0,1,0,0,0,-1.53133,3650,1,70.69
'IPB University',1,1,5,1,1,0,0,1,0,0,1,1,9,1,1,1,1,1,1,20,1,0,1,0,0,1,0,1,1,0,1,1,1,1,0,0,1,1,1,0,0,0,0,0,0,1,0,5.49,0,1,1,0,0,0,0,90,1,0,1,1,1,1,100,0,1,1,0,0,-1.3849,0,0,70.56
'University of Dundee',1,1,5,1,0,0,0,1,0,0,1,0,0,0,1,1,0,0,1,0,1,1,0,0,0,1,0,1,1,1,1,1,1,1,0,1,1,0,1,0,0,0,0,0,1,1,1,10.55,0,1,1,1,0,0,1,100,1,0,1,1,1,1,38.9,0,1,1,0,0,-0.811755,7,0,70.54
'University of Antwerp',1,1,3,1,1,0,0,0,0,0,1,0,1,0,1,1,1,1,0,0,0,0,0,0,0,0,0,0,0,1,1,1,1,0,1,1,1,1,1,1,0,0,0,0,1,1,0,12.07,0,0,0,0,0,0,0,90,1,0,1,1,1,0,11.1,0,1,0,0,0,0.759107,14,0,70.53
'University of Manitoba',1,1,5,1,0,0,0,0,0,0,1,1,3,0,0,1,1,1,0,0,1,1,0,1,0,1,0,1,1,1,1,1,1,1,1,1,1,1,0,0,0,0,1,0,1,1,1,15.91,0,1,1,0,0,0,1,90,1,0,1,1,1,1,41.2,0,1,1,0,0,0.390673,3650,1,70.51
'University of Copenhagen',1,1,3,1,1,0,0,0,0,0,0,1,2,0,1,1,0,1,0,0,1,1,1,0,1,1,0,0,1,1,1,1,1,0,1,1,1,0,1,0,0,0,0,0,0,1,1,19.8,0,1,0,0,0,1,0,100,1,0,1,1,1,1,16.7,0,1,0,0,0,-0.214012,0,0,70.44
'Charles Sturt University',1,1,4,1,0,1,0,1,0,0,0,0,0,0,1,1,1,1,0,0,1,1,0,1,1,1,0,0,1,0,1,1,1,1,1,1,1,1,1,1,0,0,0,0,1,1,1,6.19,0,1,1,0,0,0,0,75,1,2,1,0,1,1,41.7,0,1,1,0,1.09861,0.124046,5,0,70.42
'Hawassa University',1,1,2,1,1,0,0,1,0,0,1,1,9,1,1,1,0,1,1,2,1,1,0,0,1,1,0,1,1,1,1,1,1,0,1,0,1,0,1,1,0,0,1,0,1,0,1,15.43,0,1,1,0,0,0,1,75,1,0,1,1,1,1,10.5,0,1,0,0,0,-0.728272,7,0,70.38
'Mount Holyoke College',1,1,2,1,0,0,0,0,0,0,1,1,7,0,1,1,1,1,1,0,1,1,0,1,1,1,0,1,1,1,1,1,1,1,0,1,1,1,0,0,0,0,1,0,1,1,1,15.91,0,1,1,1,0,0,1,90,1,0,0,1,1,1,100,0,1,0,0,0,-1.13281,79,0,70.32
'Rice University',1,1,5,1,0,0,0,0,0,0,0,0,0,1,0,1,0,1,1,0,1,1,0,1,0,1,1,1,1,1,1,1,1,1,1,1,1,1,0,0,0,0,1,0,0,1,1,15.91,0,1,1,0,0,1,0,75,1,0,1,1,1,0,63,0,1,1,0,0,-1.21816,3650,1,70.31
'University of San Diego',1,1,7,1,0,0,0,1,0,0,1,1,6,1,0,1,1,1,1,0,0,1,0,1,1,1,0,1,1,1,1,1,1,1,1,1,1,1,0,0,0,0,0,0,0,1,0,21,0,1,1,1,0,1,1,90,1,0,1,1,0,1,84.6,0,1,0,0,0,0.431691,3650,1,70.21
'University of Sydney',1,1,6,1,0,1,1,1,0,0,0,0,1,0,0,1,1,0,1,0,1,1,0,1,0,1,0,1,1,1,1,1,1,1,1,1,1,0,1,1,0,0,1,0,0,1,1,18.42,0,1,1,0,0,0,0,90,1,0,1,1,1,1,38.9,0,1,1,0,0,0.0609866,3650,1,70.15
'Toyohashi University of Technology',1,1,7,1,0,0,0,0,0,0,0,0,0,0,1,1,0,1,1,0,0,0,0,0,0,1,0,1,1,1,1,1,1,1,0,0,0,1,1,0,0,0,1,1,1,1,1,12.63,0,1,1,0,0,0,0,75,1,0,1,1,0,0,57.9,0,1,0,0,0,-1.30122,112,0,70.15
'TU Dresden',1,1,2,1,1,1,0,0,0,0,1,1,10,0,1,1,1,1,1,6,1,1,1,0,0,1,0,0,0,1,0,1,1,0,0,1,0,1,1,1,0,0,0,0,1,1,1,21,0,1,1,0,0,0,0,100,1,0,1,1,1,0,100,0,1,1,0,0,2.73396,0,0,70.14
'Polytechnic University of Valencia',1,1,5,0,1,0,0,1,0,0,1,1,2,1,0,1,1,1,1,0,1,1,0,1,1,1,0,1,1,1,0,1,1,1,1,1,1,1,1,0,0,0,1,1,1,1,1,18.88,0,1,1,0,0,1,0,75,1,0,0,1,1,0,69.2,0,1,1,0,0,-0.0323211,3650,1,70.1
'Kent State University',1,1,2,0,0,0,0,1,1,1,1,1,4,0,0,1,1,1,1,13,1,1,0,0,1,1,0,1,1,1,1,1,1,1,1,1,1,1,1,1,0,0,0,0,1,1,0,19.63,0,1,1,1,0,0,0,75,1,0,1,1,1,1,79.2,0,1,1,0,0,-0.118121,3650,1,70.08
'Colby College',0,1,5,1,0,0,0,0,0,0,0,0,1,1,0,1,1,1,1,6,1,0,0,0,1,1,0,1,1,0,1,1,1,1,1,1,1,0,1,0,0,0,1,1,0,1,1,21,0,1,0,0,0,1,0,90,1,3,1,1,1,1,100,0,1,0,0,1.38629,-0.817297,3650,1,70.02
'University of Illinois Urbana-Champaign',0,1,3,1,0,0,0,1,0,0,1,1,4,1,0,1,1,1,1,0,1,1,0,1,1,1,0,1,1,1,1,1,1,0,1,1,1,1,1,0,0,0,0,0,1,1,1,14.52,0,1,0,0,0,1,0,90,1,0,1,1,1,1,27.6,0,1,1,0,0,0.340125,3650,1,70.02
'Houari Boumediene University of Science and Technology',1,1,7,1,0,0,0,0,0,0,0,1,3,1,1,1,0,1,0,2,1,1,0,0,0,1,0,1,1,1,1,1,1,0,1,0,1,0,1,0,0,0,1,0,1,1,1,21,0,1,1,0,0,0,0,75,1,0,1,0,1,0,37.1,0,1,0,0,0,-0.426743,0,0,70
'Banaras Hindu University',1,1,1,0,0,0,0,0,0,0,1,1,4,1,1,1,0,1,1,2,1,1,1,0,0,1,1,1,0,1,1,1,1,1,0,0,1,1,1,1,0,1,0,1,1,1,0,12.63,0,1,1,0,0,0,0,75,1,4,0,0,1,0,21.4,0,0,0,0,1.60944,-0.0118489,14,0,69.96
'NOVA University Lisbon',1,1,8,1,1,0,0,0,0,0,1,1,10,0,1,1,0,1,1,8,1,1,1,1,1,1,0,1,1,1,1,1,1,0,0,0,0,0,1,1,0,0,1,0,1,1,1,10.37,0,1,1,0,0,1,0,90,1,0,1,0,1,0,44.7,0,1,0,0,0,-0.483386,0,0,69.96
'Washington State University',0,1,7,1,0,0,0,0,1,1,0,1,4,1,0,1,1,1,1,0,1,1,0,1,1,1,0,1,1,1,1,1,1,1,1,1,0,1,0,1,0,0,0,0,1,1,0,15.13,0,1,0,0,0,0,0,90,1,0,1,1,1,1,60,0,1,0,0,0,0.169215,3650,1,69.9
'Universite Paris Cite',1,1,5,1,1,0,0,0,0,0,1,0,0,0,1,1,1,1,1,0,0,0,0,0,0,1,0,0,1,1,1,1,0,1,1,1,0,1,1,1,0,0,0,0,0,1,1,10.05,0,1,1,0,0,0,0,75,1,1,1,0,1,0,55.6,0,1,1,0,0.693147,-0.219832,0,0,69.9
'Queen\'s University Belfast',1,1,11,1,0,0,1,1,1,1,1,1,3,0,0,1,0,0,1,2,1,1,0,0,1,1,0,1,1,1,1,1,1,1,1,1,1,1,1,0,0,0,1,0,0,1,1,7.68,0,1,0,0,0,0,0,90,1,0,1,1,1,1,100,0,1,1,0,0,-0.111196,3650,1,69.88
'University of Warsaw',1,1,6,1,0,0,0,1,0,0,0,0,0,0,0,1,1,1,0,0,0,0,0,0,0,1,0,1,1,1,1,1,1,1,1,0,0,0,1,0,1,0,0,1,1,1,0,11.24,0,1,1,0,0,0,0,75,1,1,1,0,1,0,27.3,0,1,1,0,0.693147,0.196436,3650,1,69.83
'Sciences Po',1,1,5,0,1,0,0,1,0,0,0,1,10,1,0,1,1,1,1,0,1,1,1,1,1,1,0,1,1,0,1,1,1,1,1,1,1,1,1,1,1,0,1,0,1,1,1,21,0,1,1,1,0,1,0,90,1,0,1,1,1,0,47.5,0,1,1,0,0,0.0849799,3650,1,69.81
'University of Mauritius',1,1,8,1,0,0,0,0,1,1,1,0,0,0,0,1,1,1,1,0,0,0,0,0,0,1,0,1,1,1,1,1,1,1,1,1,1,1,1,1,0,0,1,0,1,1,0,15.43,0,1,1,0,0,0,0,75,1,44,0,0,1,1,82.4,0,1,0,0,3.80666,0.354287,3650,1,69.81
'Kasetsart University',1,1,1,1,1,0,0,1,0,0,1,1,2,1,1,1,1,1,0,0,1,1,0,0,0,1,0,1,1,1,1,1,1,0,0,0,0,1,1,1,0,0,0,1,1,1,0,15.92,0,1,1,0,0,1,0,100,1,0,0,1,1,1,100,0,1,0,0,0,-1.54924,6,0,69.79
'Autonomous University of Madrid',1,1,9,1,1,1,0,1,0,0,1,1,3,0,1,1,0,1,0,0,1,1,1,0,1,1,0,0,1,1,1,1,1,0,1,0,1,0,1,0,0,0,0,0,0,1,1,15.43,0,1,1,0,0,0,0,100,1,0,0,1,1,0,96,0,1,1,0,0,0.508312,85,0,69.75
'Carol Davila University of Medicine and Pharmacy',1,1,5,1,0,0,0,0,0,0,0,0,0,0,1,1,0,1,1,1,1,1,1,0,0,1,0,1,1,1,1,1,1,0,1,0,0,1,1,0,0,0,0,0,1,1,0,14.59,0,1,1,0,0,0,0,75,1,0,1,0,1,1,13.3,0,1,0,0,0,-1.45466,7,0,69.73
'Ton Duc Thang University',1,1,6,0,1,0,0,1,1,1,0,1,3,0,1,1,0,1,1,8,1,1,1,1,1,1,0,1,1,1,1,1,1,1,0,0,0,0,1,0,0,0,0,0,1,1,1,15.43,0,1,1,0,0,0,0,75,1,0,0,1,1,1,13.6,0,1,0,0,0,0.00149696,4,0,69.68
'Guru Gobind Singh Indraprastha University',1,1,8,0,0,0,0,1,1,1,0,0,0,1,0,1,1,1,1,0,1,0,1,0,0,1,0,1,1,1,1,1,1,0,1,1,1,1,1,1,1,0,0,1,0,0,0,15.43,0,1,0,0,0,0,0,75,1,0,1,0,1,1,61.5,0,1,0,0,0,-0.594696,3650,1,69.66
'Abo Akademi University',1,1,2,1,1,0,0,0,0,0,0,1,10,0,1,1,1,0,1,4,1,1,1,0,1,1,0,0,1,1,1,1,1,0,1,0,1,1,1,0,0,0,1,0,0,1,1,16.31,0,1,1,0,0,1,0,90,1,0,1,1,1,1,28.2,0,1,1,0,0,0.373545,0,0,69.65
'Far Western University',1,1,8,0,0,0,0,0,1,1,1,1,4,1,1,1,0,1,0,7,1,1,0,0,0,1,1,1,1,1,1,1,1,1,1,0,0,0,1,0,1,0,1,0,1,0,0,3.54,0,1,1,0,0,0,0,75,1,0,1,0,1,0,8.3,0,0,0,0,0,0.209916,1,0,69.65
'National Chengchi University',1,1,4,1,1,0,0,0,0,0,0,1,10,1,1,0,1,1,0,0,0,1,0,0,0,1,0,1,1,1,1,1,1,0,1,0,1,1,1,0,0,0,0,1,0,1,0,18.58,0,1,0,0,0,0,1,50,1,0,1,1,1,1,90.2,0,1,0,0,0,0.364701,0,0,69.62
'University of Modena and Reggio Emilia',1,1,8,1,1,0,0,0,1,1,1,1,3,1,1,1,0,1,0,0,1,1,0,1,0,1,0,1,1,1,1,1,1,0,1,0,0,1,0,1,0,0,1,1,1,1,1,1.3,0,1,1,0,0,0,0,75,1,0,1,0,1,0,87.9,0,1,1,0,0,-1.07221,0,0,69.59
'University of Alabama',1,1,7,1,0,0,0,1,0,0,1,0,0,1,0,1,1,1,0,0,1,1,0,1,1,1,0,1,1,1,1,1,1,0,1,1,1,0,1,0,0,0,1,0,1,1,1,21,0,1,1,0,0,0,1,90,1,0,1,1,1,1,38.9,0,1,1,0,0,1.12362,3650,1,69.52
'University of Georgia',1,1,5,1,0,0,0,1,0,0,0,1,3,1,1,1,1,0,1,7,1,1,0,1,1,1,0,1,1,1,1,1,1,1,0,1,1,0,0,0,0,0,1,0,1,1,1,15.43,0,1,0,0,0,1,0,75,1,0,0,1,1,1,22.2,0,1,1,0,0,0.0503033,1,0,69.49
'University of Evora',1,1,8,1,0,0,0,0,1,1,1,1,10,0,0,1,1,1,1,0,0,0,0,0,1,1,0,1,1,1,1,1,1,1,1,0,1,0,1,1,0,0,0,0,1,1,0,15.13,0,1,1,0,0,0,1,75,1,0,1,1,1,0,100,0,1,1,0,0,0.13338,3650,1,69.48
'University of National and World Economy',1,1,20,1,1,0,0,0,1,1,1,1,7,0,1,1,0,1,1,15,1,1,1,0,1,1,0,1,1,1,0,1,1,1,1,0,0,0,1,1,0,0,0,0,0,1,0,12.63,0,1,1,0,0,0,0,100,1,4,1,1,1,1,67.6,0,1,1,0,1.60944,-0.0172737,34,0,69.4
'Kookmin University',1,1,7,1,0,0,0,0,0,0,1,1,5,0,0,1,1,1,0,0,0,0,1,1,1,1,0,1,1,1,1,1,1,1,0,0,1,0,1,1,0,1,0,0,1,1,0,7.46,0,1,1,0,0,0,1,75,1,0,0,1,1,1,67.2,0,1,0,0,0,1.22275,3650,1,69.4
'Claude Bernard University Lyon 1',1,1,4,1,1,0,0,0,0,0,1,0,1,1,0,1,1,1,1,0,1,1,0,0,0,1,0,1,1,1,1,1,1,0,1,1,1,0,1,1,0,0,0,0,1,1,1,14.79,0,0,1,0,0,0,0,75,1,0,1,0,1,0,52.6,0,1,1,1,0,-0.702876,3650,1,69.2
'Kharkiv Polytechnic Institute',1,1,3,1,0,0,1,1,1,1,1,0,0,0,1,1,0,1,1,6,1,1,0,0,0,1,0,1,1,1,1,1,1,0,1,0,1,0,1,0,0,0,0,0,1,1,0,13.99,0,1,1,0,0,0,0,90,1,0,1,0,1,1,32,0,1,0,0,0,-1.1349,4,0,69.2
'University of Agder',0,1,1,1,1,1,0,0,0,0,0,1,2,0,1,1,0,0,0,16,0,0,1,0,0,1,0,0,1,1,1,1,1,0,1,1,0,0,1,1,0,0,1,0,0,1,1,12.63,0,1,0,0,0,0,0,75,1,0,1,1,1,0,87.5,0,1,1,0,0,-0.483178,0,0,69.19
'University of Leeds',0,1,4,1,0,0,1,1,1,1,1,0,0,0,0,1,1,1,1,0,1,1,0,0,0,1,0,1,1,1,1,1,1,0,1,1,1,1,1,1,0,0,0,0,1,1,0,15.43,0,1,0,0,0,0,1,75,1,0,1,1,1,1,91.7,0,1,1,0,0,-1.27249,3650,1,69.17
'Oles Honchar Dnipro National University',1,1,6,1,1,0,0,1,0,0,1,1,4,1,1,1,0,1,0,0,1,0,1,1,0,1,0,1,1,1,1,1,1,1,1,0,0,1,1,0,0,0,0,1,1,1,1,10.52,0,1,1,0,0,0,0,20,1,0,1,0,0,1,70.2,0,0,0,0,0,-0.0844497,583,0,69.15
'University of Piraeus',1,1,4,1,1,0,0,0,1,0,1,0,0,1,1,1,0,0,0,0,0,0,0,0,1,1,0,0,1,1,1,1,1,1,1,1,1,1,1,0,0,0,1,0,1,1,1,16.67,0,1,1,0,0,0,0,90,1,1,1,0,1,0,89.3,0,1,1,0,0.693147,1.32392,308,0,69.14
'Chungbuk National University',1,1,5,1,0,0,0,0,0,0,0,1,7,1,0,1,0,1,0,0,0,0,1,1,1,1,0,1,1,1,1,1,1,0,1,0,0,0,1,1,0,1,1,1,1,1,0,9.74,0,1,1,1,0,0,0,75,1,1,0,0,0,1,100,0,1,0,0,0.693147,1.99611,3650,1,69.11
'Fordham University',1,1,1,1,0,0,0,0,0,0,0,1,3,1,0,1,1,1,1,0,0,0,0,0,1,1,0,1,1,1,1,1,1,1,1,1,1,1,0,0,0,0,0,0,0,1,1,12.63,0,1,1,0,0,1,0,90,1,0,1,1,1,1,72.2,0,1,1,0,0,0.698518,3650,1,69.04
'Pontifical Catholic University of Peru',0,1,7,1,1,0,1,1,1,1,0,1,6,0,0,1,0,1,1,0,0,0,0,0,0,0,0,1,1,1,1,1,1,1,1,0,0,0,1,1,0,0,1,1,1,1,1,12.63,0,0,0,0,0,0,0,75,1,0,1,0,1,1,0,0,1,0,0,0,-0.973141,3650,1,69.03
'Toulouse III - Paul Sabatier University',1,1,7,1,1,0,0,1,1,0,0,1,10,1,0,1,1,1,1,0,1,1,0,1,0,0,1,1,1,0,1,1,1,1,1,1,1,1,1,1,0,0,1,1,1,0,1,1,0,0,1,0,0,0,0,75,1,0,1,1,1,0,72.7,0,1,1,0,0,-0.568535,3650,1,69.02
'Kenyon College',0,1,2,1,0,0,0,1,0,0,1,1,4,0,0,1,1,1,1,1,1,1,0,1,1,1,0,1,1,1,1,1,1,1,1,1,1,1,0,0,0,0,1,0,1,1,1,21,0,1,0,0,0,0,1,100,1,0,1,1,1,1,0,0,1,1,0,0,-0.108177,3650,1,68.84
'University of California, Santa Barbara',0,1,5,1,0,0,0,1,0,0,0,1,2,0,0,1,0,1,1,0,0,0,0,0,1,1,0,1,1,1,1,1,1,0,1,1,1,1,1,0,0,0,1,0,1,1,1,9.24,0,1,0,0,0,0,1,75,1,0,1,1,1,1,50,0,1,1,0,0,-1.15311,3650,1,68.81
'University of Amsterdam',0,1,3,1,0,0,0,0,0,0,1,0,0,0,1,1,0,1,1,4,1,1,0,0,0,1,0,0,1,1,1,1,1,0,1,1,1,0,1,1,0,0,0,0,1,1,1,1.16,0,1,0,0,1,0,0,100,1,0,0,1,1,0,0,0,1,0,0,0,-0.672322,0,0,68.8
'University of Pittsburgh',1,1,6,1,0,0,0,1,0,0,1,1,3,0,0,1,0,1,1,0,1,1,0,0,1,1,0,1,1,1,1,1,1,1,0,1,1,1,1,0,0,0,1,0,0,1,1,15.43,0,1,1,0,0,0,0,75,1,0,1,0,1,0,100,0,1,1,0,0,-1.33624,3650,1,68.79
'Santa Clara University',0,1,7,1,0,0,0,1,1,1,0,1,4,0,0,1,1,1,1,0,0,0,0,0,1,1,0,1,1,1,1,1,1,0,0,1,1,1,1,1,0,0,1,0,1,1,1,15.43,0,1,0,1,0,0,0,75,1,0,1,1,1,1,80,0,1,1,0,0,-0.653224,3650,1,68.76
'University of Carthage',1,1,11,1,0,0,0,1,1,1,1,0,0,0,1,1,0,1,1,0,1,1,0,1,1,1,0,1,1,1,1,1,1,1,0,1,1,0,1,0,0,0,0,0,1,1,0,13.58,0,1,0,0,0,0,0,90,1,0,1,0,1,1,31.4,0,1,0,0,0,-0.0810364,60,0,68.73
'Catholic University of Portugal',1,1,3,1,1,0,0,1,0,0,1,1,5,0,1,0,1,1,0,11,1,1,1,0,0,1,0,0,1,1,1,1,1,0,0,0,1,1,1,0,0,0,1,0,1,1,1,13.4,0,1,1,0,0,0,0,100,1,0,0,1,1,0,89.1,0,1,0,0,0,2.62552,0,0,68.7
'Rotterdam University of Applied Sciences',0,1,1,1,1,1,0,0,0,0,0,0,0,0,1,1,1,1,1,0,1,0,0,0,0,1,0,0,1,1,1,1,1,0,1,1,0,1,1,1,0,0,0,0,1,1,0,11.9,0,1,0,0,0,0,0,75,1,0,1,1,1,0,0,0,1,0,0,0,0.689027,41,0,68.65
'University of Illinois Chicago',0,1,0,1,0,0,0,1,0,0,1,0,0,0,1,1,1,1,1,1,0,0,1,0,0,1,0,1,1,1,1,1,1,1,1,0,1,1,1,0,0,0,1,0,1,1,1,19.77,0,1,0,0,0,0,0,75,1,0,1,1,1,0,0,0,1,0,0,0,-0.36506,3650,1,68.5
'University of Mississippi',1,1,6,1,0,0,0,0,0,0,0,1,2,1,1,1,0,1,1,1,1,1,0,0,0,1,0,1,1,1,1,1,1,0,1,1,1,1,0,0,0,0,1,0,1,1,1,15.91,0,1,1,0,0,0,1,75,1,0,1,1,1,1,87.1,0,1,1,0,0,0.147463,578,0,68.39
'Mid Sweden University',1,1,3,1,1,1,0,0,0,0,0,0,0,0,1,1,0,1,0,2,1,1,0,0,0,1,0,0,1,0,1,1,1,1,1,1,0,1,1,1,0,0,1,0,0,0,0,13.2,0,1,1,0,0,1,0,90,1,0,1,1,1,1,29.4,0,1,0,0,0,0.0767352,32,0,68.34
'AGH University of Krakow',1,1,1,1,0,0,0,1,0,0,0,1,7,0,1,1,0,1,1,20,1,1,0,1,0,1,0,1,1,1,0,1,1,0,1,1,1,0,1,0,0,0,0,1,1,1,0,16.1,0,1,0,0,0,0,0,100,1,0,1,1,1,0,100,0,1,1,0,0,-1.3178,0,0,68.28
'Oberlin College',1,1,2,1,1,1,0,0,1,1,1,0,0,1,0,1,0,1,1,0,1,1,0,1,1,1,0,1,1,1,1,1,1,1,1,0,1,1,1,0,0,0,0,0,1,0,0,19.38,0,1,1,1,0,0,0,75,1,0,1,0,1,1,7.6,0,1,1,0,0,0.609645,3650,1,68.23
'Linkoping University',1,1,3,1,1,0,0,0,0,0,0,0,0,0,1,1,1,1,0,2,1,1,0,0,0,0,0,1,1,0,1,1,1,0,1,1,1,1,1,0,0,0,0,0,0,1,0,16.88,0,0,1,0,0,0,1,100,1,0,1,1,1,1,76.9,0,1,1,0,0,-0.909964,19,0,68.15
'Norwegian University of Science and Technology',1,1,1,1,1,1,0,0,0,0,0,0,0,0,0,1,1,1,0,0,1,1,0,0,0,1,0,0,1,1,1,1,1,0,1,1,0,1,1,1,0,0,0,0,0,1,1,14.61,0,1,1,0,0,0,0,100,1,0,1,1,1,0,78.6,0,1,1,0,0,1.40995,3650,1,68.15
'Oregon State University',1,1,5,0,0,0,0,1,0,0,1,1,4,0,0,1,1,1,1,0,0,0,0,0,0,1,0,1,1,1,1,1,1,0,1,1,1,1,1,0,0,0,1,0,1,1,1,9.74,0,1,1,0,0,0,0,75,1,0,1,1,1,1,71.4,0,1,1,0,0,-0.516703,3650,1,68.07
'Molde University College',1,1,1,1,1,1,0,0,0,0,1,1,8,1,1,1,0,1,0,20,0,0,1,0,0,0,0,0,1,0,1,1,1,1,1,0,0,1,1,1,0,0,1,0,0,1,0,19.09,0,0,0,0,0,0,0,75,1,0,1,0,1,0,66.7,0,1,1,0,0,0.170822,0,0,67.89
'Royal Holloway, University of London',1,1,4,1,0,0,0,0,0,0,1,0,0,0,0,1,1,0,1,0,1,1,0,0,0,1,0,0,1,1,1,1,1,1,1,1,1,1,1,1,1,0,1,0,0,1,1,1.44,0,1,1,0,0,1,0,75,1,0,1,1,1,1,0,0,1,1,0,0,-0.320951,3650,1,67.89
'University of Maribor',1,1,4,1,1,0,0,1,0,0,1,0,0,0,1,1,0,1,1,1,1,1,1,1,0,1,1,1,1,1,1,1,1,0,1,0,0,0,0,0,0,0,1,0,1,1,1,21,0,1,1,0,0,0,0,75,1,0,1,1,1,1,15,0,1,1,0,0,-0.201426,13,0,67.87
'Karolinska Institute',1,1,1,1,1,0,0,0,0,0,1,0,0,0,1,1,1,1,0,9,1,1,0,0,0,1,0,0,1,0,1,1,1,0,1,1,0,1,1,0,0,0,1,0,1,1,1,21,0,1,1,0,0,0,0,100,1,0,0,1,1,0,95.7,0,1,1,0,0,0.191919,0,0,67.87
'Satbayev University',1,1,7,1,1,0,0,0,1,1,1,1,4,0,0,1,0,1,1,0,1,1,0,1,1,1,0,1,1,1,0,1,1,1,1,1,1,1,1,0,0,0,0,0,1,1,1,19.77,0,1,0,0,0,0,0,75,1,0,1,1,1,0,98.1,0,1,0,0,0,1.60324,3650,1,67.86
'University of New Hampshire',1,1,4,1,0,0,0,0,0,0,1,0,0,0,1,1,0,1,1,0,0,0,1,1,0,1,0,1,1,1,1,1,1,0,1,0,1,1,1,0,0,0,1,0,1,1,1,16.54,0,1,1,0,0,0,0,100,1,0,1,1,1,0,44.1,0,1,1,0,0,-0.287166,185,0,67.75
'University of Goettingen',1,1,7,1,1,1,0,1,0,0,1,1,6,1,1,1,1,0,1,2,1,1,1,0,0,1,0,1,0,0,0,1,1,1,1,1,1,0,1,1,0,0,1,0,0,1,1,5.03,0,1,1,0,0,0,1,75,1,0,1,1,1,0,87,0,1,1,0,0,-0.854918,0,0,67.69
'University of West Bohemia',1,1,4,1,1,0,0,0,0,0,1,1,6,1,0,1,0,1,0,20,1,1,0,0,0,1,0,0,1,1,1,1,1,0,1,0,0,1,1,0,0,0,0,0,1,1,1,6.82,0,1,1,0,0,0,0,100,1,0,1,1,1,1,95.8,0,1,0,0,0,-0.59033,3650,1,67.66
'University of Minnesota Twin Cities',0,1,4,1,0,0,0,1,0,0,0,1,3,0,1,1,1,1,1,0,1,1,0,1,1,1,0,1,1,0,1,1,1,1,1,1,1,1,1,0,0,0,0,0,1,1,1,12.63,0,1,0,0,0,0,0,100,1,0,1,1,1,1,90,0,1,1,0,0,0.0152927,375,0,67.65
'Maria Curie-Sklodowska University',1,1,9,1,1,0,0,0,1,0,0,1,8,0,0,1,1,1,1,1,1,1,1,0,0,1,1,1,1,1,1,1,1,0,1,0,0,0,1,0,0,0,0,1,1,1,0,18.26,0,1,0,0,0,0,0,75,1,0,1,0,0,0,88.2,0,1,1,0,0,-0.0552506,3650,1,67.63
'North-West University',1,1,6,1,1,0,0,1,1,1,1,0,0,1,0,1,1,0,1,6,1,1,0,1,1,1,0,1,1,1,1,1,1,0,1,1,1,0,1,1,0,0,0,0,1,1,1,12.63,0,1,1,0,0,0,0,75,1,0,1,0,1,0,64,0,1,0,0,0,-1.34451,3650,1,67.59
'University of Cologne',1,1,4,1,1,0,0,1,1,1,0,1,4,0,1,1,1,1,1,4,1,1,1,0,0,1,0,0,0,0,0,1,1,0,1,1,1,0,1,0,0,0,1,1,1,1,1,21,0,1,1,0,0,0,0,100,1,0,1,1,1,1,28.6,0,1,1,0,0,0.44799,4,0,67.37
'University of Pisa',1,1,5,1,0,1,0,1,0,0,1,0,0,1,0,1,0,1,1,0,0,0,0,1,0,1,0,1,1,1,1,1,1,1,1,0,1,0,1,0,0,0,0,0,0,1,0,15.43,0,1,0,0,0,1,0,90,1,1,1,0,1,0,40,0,1,0,0,0.693147,0.284033,3650,1,67.29
'University of Ioannina',1,1,4,0,1,0,0,0,0,0,0,0,0,0,1,1,0,1,1,0,1,1,0,0,0,1,0,1,1,1,1,1,1,0,1,1,0,0,1,0,0,0,0,0,1,1,1,12.08,0,1,1,0,0,0,0,90,1,0,1,0,1,1,93.1,0,1,0,0,0,-0.582806,48,0,67.22
'Tokyo University of Science',1,1,8,1,1,0,0,0,0,0,1,1,2,0,0,1,1,1,1,0,1,1,0,1,1,1,0,1,1,1,1,1,1,0,1,0,1,1,1,0,0,0,0,1,1,1,0,15.43,0,1,0,0,0,0,1,75,1,0,1,1,0,0,44.6,0,1,0,0,0,-0.158433,3650,1,67.09
'University of Campinas',1,1,2,1,0,0,0,0,0,0,1,1,10,0,1,1,1,1,1,20,1,0,0,1,0,1,0,1,0,1,1,1,1,0,1,0,0,0,0,0,0,0,1,0,1,1,1,5.55,0,1,1,0,0,0,0,90,1,2,1,0,1,1,81.6,0,1,1,0,1.09861,-0.891378,1,0,66.93
'University of Debrecen',1,1,3,1,1,0,0,1,0,0,0,1,10,1,0,1,1,1,1,2,1,1,0,0,0,1,0,1,1,1,1,1,1,0,1,0,1,1,1,1,0,0,0,0,1,1,0,14.78,0,1,1,0,0,1,0,75,1,0,1,0,1,0,77.8,0,1,0,0,0,-0.114007,3650,1,66.84
'Wroclaw University of Science and Technology',1,1,8,1,1,0,0,1,0,0,0,0,1,0,1,1,1,1,1,0,0,0,1,0,0,1,0,1,0,1,1,1,0,0,1,0,0,1,1,0,0,0,0,1,1,1,1,15.43,0,1,0,0,0,0,0,90,1,0,1,1,1,0,87.1,0,1,1,0,0,0.0346758,6,0,66.83
'University of Benin',1,1,10,1,0,0,0,0,0,0,1,0,0,0,0,1,1,1,1,1,1,1,0,0,0,1,0,1,1,1,1,1,1,0,1,0,1,0,1,0,0,0,0,1,1,1,1,15.43,0,1,1,0,0,0,0,75,1,12,1,0,1,1,87.4,0,1,0,0,2.56495,-0.6193,3650,1,66.71
'University of Uyo',1,1,20,1,1,0,0,0,0,0,1,0,0,0,0,1,1,1,1,0,0,0,1,0,0,1,0,1,1,1,1,1,1,0,1,1,1,0,1,0,0,0,1,0,1,0,1,12.63,0,1,1,0,0,0,0,75,1,0,1,0,1,1,59.5,0,1,0,0,0,-0.060841,3650,1,66.61
'Riphah International University',0,1,5,1,0,0,1,1,1,1,1,0,1,1,0,1,0,1,1,0,1,1,0,1,0,1,0,1,1,1,1,1,1,0,0,1,1,0,1,0,0,0,0,1,1,1,1,12.63,0,1,0,0,0,1,0,75,1,0,1,1,1,1,83.3,0,1,0,0,0,-0.944208,3650,1,66.59
'Panteion University',1,1,5,1,1,0,0,0,0,0,0,1,10,1,0,1,1,1,1,8,1,1,0,0,1,1,0,1,1,1,1,1,1,0,1,0,1,0,1,0,0,0,0,0,1,1,0,21,0,1,1,0,0,0,0,90,1,0,1,0,1,0,71.9,0,1,0,0,0,2.6214,3650,1,66.58
'Inland Norway University of Applied Sciences',1,1,1,1,1,0,0,0,0,0,0,1,2,0,1,1,0,0,0,20,1,0,1,0,0,1,0,0,1,1,1,1,1,0,1,1,0,0,1,1,0,0,0,0,0,1,1,15.13,0,0,1,0,0,0,0,75,1,0,1,1,1,0,89.5,0,1,1,0,0,0.567538,0,0,66.48
'King Mongkut\'s Institute of Technology Ladkrabang',1,1,3,0,1,0,0,0,0,0,1,1,10,0,1,1,0,1,1,15,1,1,1,1,0,1,0,1,1,1,1,1,1,0,0,0,1,0,1,0,0,0,1,0,0,1,1,15.43,0,1,1,0,0,0,0,75,1,0,1,1,1,1,80.2,0,1,0,0,0,-0.394014,0,0,66.47
'Umea University',1,1,0,1,1,0,0,0,0,0,1,1,3,0,0,1,0,1,0,3,1,0,0,0,0,1,0,0,1,1,1,1,1,0,1,1,0,1,1,1,0,0,1,0,0,1,1,21,0,1,1,0,0,0,0,100,1,0,1,1,0,1,44.4,0,1,1,0,0,0.131053,3650,1,66.46
'Palacky University Olomouc',1,1,1,1,0,0,1,1,0,0,1,1,4,1,0,1,1,1,1,0,1,1,0,0,0,1,1,1,1,1,1,1,1,0,1,0,1,1,1,0,0,0,1,0,1,1,1,7.59,0,1,0,0,0,0,0,75,1,0,0,1,1,0,58.7,0,1,1,0,0,-1.08528,3650,1,66.45
'University of Groningen',1,1,6,1,1,0,0,0,0,0,1,0,0,0,0,1,0,1,1,0,1,1,0,0,0,0,0,0,1,1,1,1,1,0,1,1,1,1,1,1,0,0,0,0,1,1,1,10.37,0,0,1,0,0,0,0,50,1,0,1,1,1,0,7.1,0,1,1,0,0,0.695574,3650,1,66.4
'Universiti Sains Malaysia',1,1,2,1,1,0,0,1,0,0,0,0,0,1,1,1,1,1,0,0,0,0,0,0,1,1,0,1,1,1,1,1,1,0,0,0,0,1,1,0,0,0,0,0,1,1,1,5.15,0,1,1,0,0,0,1,90,1,0,0,1,1,0,14.3,0,1,0,0,0,-0.771265,0,0,66.38
'Instituto Tecnologico y de Estudios Superiores de Monterrey (Tecnologico de Monterrey)',1,1,4,1,1,0,1,1,1,0,0,0,0,1,0,1,0,1,0,0,1,1,0,1,1,1,0,1,1,1,1,1,1,1,0,0,1,0,1,0,0,0,0,0,1,1,1,15.43,0,1,0,1,0,0,0,100,1,0,1,1,1,1,87.1,0,1,0,0,0,2.12505,3650,1,66.37
'University of Patras',1,1,9,1,1,0,1,1,0,0,1,0,0,1,0,1,1,0,0,0,1,1,0,0,0,1,0,0,1,1,1,1,1,1,1,0,1,0,1,1,0,0,1,0,0,1,1,19.26,0,1,1,0,0,0,0,75,1,0,1,0,1,0,91.3,0,1,1,0,0,0.181746,3650,1,66.33
'University of Miami',1,1,2,1,0,0,0,1,1,1,0,1,2,1,0,1,1,1,1,5,1,1,0,0,0,1,0,1,1,1,1,1,1,0,1,1,1,1,0,0,0,0,0,0,1,1,0,20.82,0,1,0,1,0,0,0,75,1,0,1,1,1,1,91.5,0,1,1,0,0,0.835453,3650,1,66.31
'Universiti Kebangsaan Malaysia',1,1,1,1,1,0,0,0,1,0,1,0,0,0,0,1,0,1,1,0,0,0,0,1,0,1,0,1,1,1,1,1,1,1,1,1,1,1,1,0,0,0,0,0,1,1,0,12.63,0,1,0,0,0,0,1,90,1,0,0,0,0,0,7.1,0,1,0,0,0,-0.307929,3650,1,66.29
'Queen\'s University',1,1,3,1,0,0,1,1,0,0,1,0,0,0,0,0,1,1,0,0,1,1,0,1,1,1,0,1,1,1,1,1,1,0,1,1,1,0,1,1,0,0,1,0,1,1,1,15.28,0,1,0,1,0,0,0,90,1,0,1,1,1,1,29.4,0,1,1,0,0,-0.0211681,3650,1,66.29
'University of West Attica',1,1,5,1,1,1,0,0,1,1,1,1,4,0,0,0,1,0,0,1,1,1,0,0,0,1,0,0,1,1,1,1,1,0,1,0,1,1,1,1,0,0,1,1,1,1,1,19.43,0,1,1,1,0,1,1,90,1,0,1,1,1,0,68.4,0,1,0,0,0,-0.541784,3650,1,66.18
'University of the Philippines Diliman',1,1,7,1,0,0,0,1,1,0,1,0,0,1,1,1,1,1,1,13,1,1,0,0,1,1,0,1,1,0,1,1,1,1,1,0,1,0,1,1,0,0,1,0,1,1,1,15.43,0,1,1,0,0,0,0,90,1,2,1,1,1,1,22.9,0,0,0,0,1.09861,-0.133551,380,0,66.16
'University of Connecticut',0,1,8,0,0,0,0,0,0,0,0,0,0,1,1,1,0,1,1,2,1,1,1,1,0,1,0,1,1,1,1,1,1,0,0,1,1,1,1,1,0,0,1,0,1,1,1,19.02,0,1,0,0,0,0,0,75,1,0,1,1,1,1,100,0,1,1,0,0,0.427341,3650,1,66.1
'Arizona State University',1,1,6,1,0,0,0,1,0,0,1,0,0,0,0,1,0,1,1,0,1,1,0,1,1,1,0,1,1,1,1,1,1,0,0,1,1,1,1,1,0,0,0,0,1,1,1,17.58,0,1,1,0,0,1,0,100,1,0,1,0,1,1,93.8,0,1,1,0,0,-0.555443,3650,1,66.08
'Goethe University Frankfurt',1,1,5,0,1,0,0,0,0,0,0,0,0,0,1,1,1,1,1,1,1,1,1,1,0,1,0,0,1,1,1,1,1,0,0,0,1,1,1,1,0,0,0,0,1,1,0,11.71,0,1,1,0,0,1,0,100,1,0,1,1,1,0,59.3,0,1,1,0,0,-0.821212,156,0,65.94
'Karlstad University',1,1,4,0,1,0,0,0,0,0,0,0,0,0,1,1,1,1,0,0,0,0,0,0,0,1,0,0,1,0,1,1,1,0,1,1,1,1,1,1,0,0,1,0,1,1,1,21,0,1,1,1,0,0,0,75,1,0,1,1,1,0,100,0,1,1,0,0,-0.0333561,0,0,65.67
'Yuriy Fedkovych Chernivtsi National University',1,1,7,1,1,0,0,0,0,0,1,1,2,0,1,1,0,1,0,1,1,1,0,0,0,1,0,1,1,1,0,1,1,0,0,0,1,0,1,0,0,0,1,0,1,1,1,16.48,0,1,1,0,0,0,0,100,1,0,1,1,1,1,100,0,1,0,0,0,-1.27732,4,0,65.65
'University of Toronto',1,1,3,1,0,0,0,1,0,0,1,0,0,0,1,1,0,0,1,3,1,0,0,1,0,1,0,0,1,0,1,1,1,0,1,1,1,1,1,0,0,0,0,1,0,1,1,7.49,0,1,1,0,0,0,0,90,1,0,1,1,1,1,100,0,1,1,0,0,-1.28259,0,0,65.63
'University of Jyvaskyla',1,1,3,1,1,0,0,0,0,0,0,1,6,1,1,1,1,1,0,8,1,1,1,0,0,1,0,0,1,1,0,1,0,0,1,1,0,1,1,1,0,0,1,0,0,1,1,21,0,1,1,0,0,1,0,100,1,0,1,1,1,0,54.5,0,1,0,1,0,0.00204771,0,0,65.58
'South China University of Technology',1,1,2,0,0,0,0,1,0,0,1,0,1,0,1,1,0,1,1,0,1,0,0,1,0,1,0,1,1,1,1,1,1,1,1,0,1,1,1,0,1,0,0,0,1,0,0,12.21,0,1,1,0,0,0,0,75,1,2,0,0,0,0,0,0,0,0,0,1.09861,-0.539496,18,0,65.54
'Vinnytsia National Technical University',1,1,2,1,1,0,0,0,1,1,1,1,4,0,0,1,0,1,1,0,1,1,1,1,0,1,0,1,1,1,1,1,1,0,1,1,1,1,1,0,0,0,0,1,1,1,0,10.73,0,1,0,0,0,0,0,75,1,0,1,1,1,1,13.7,0,1,0,0,0,-0.14446,3650,1,65.53
'University of Bologna',1,1,2,1,1,0,0,0,1,0,1,1,2,1,0,1,0,1,1,1,1,1,0,1,1,1,0,1,1,0,0,1,1,1,1,1,1,1,1,1,1,0,1,0,1,1,1,12.63,0,1,1,1,0,0,0,100,1,0,1,0,0,0,54.2,0,1,1,0,0,-0.744208,3650,1,65.49
'Hitotsubashi University',1,1,6,1,0,0,0,0,0,0,1,1,10,1,0,1,0,1,1,2,1,1,1,1,0,1,0,1,1,1,1,1,1,0,1,0,1,0,1,0,0,0,1,1,1,1,1,21,0,1,1,0,0,0,0,50,1,0,0,1,1,0,14.1,0,0,0,0,0,-0.306123,3650,1,65.44
'Paris-Est Creteil University',1,1,4,1,1,1,0,0,0,0,1,0,0,1,0,1,0,1,0,0,1,1,0,1,0,1,0,1,1,0,1,1,1,0,1,1,1,0,1,1,1,0,0,1,1,1,1,16.3,0,1,1,0,0,0,0,75,1,0,1,1,1,0,47.9,0,1,1,1,0,1.85129,3650,1,65.3
'University of Missouri',1,1,7,1,0,0,0,0,0,0,0,1,6,0,0,1,1,1,1,0,0,0,0,0,0,1,0,1,1,1,1,1,1,0,0,1,1,1,1,0,0,0,1,0,1,1,1,1.15,0,1,0,0,0,0,0,100,1,0,0,0,1,1,100,0,1,1,0,0,-1.16036,3650,1,65.19
'University of Minho',1,1,5,1,1,1,0,0,1,1,1,1,3,1,0,1,0,0,1,6,0,1,0,0,1,1,0,1,0,1,1,1,1,1,1,0,1,0,1,1,0,0,0,0,1,1,0,21,0,1,0,0,0,1,0,50,1,0,1,0,1,0,39.5,0,1,0,0,0,0.294244,3650,1,65.08
'Konkuk University',1,1,7,0,0,0,0,1,1,1,1,1,3,1,0,1,0,1,1,0,0,0,1,0,0,1,0,1,1,1,1,1,1,0,1,0,1,1,1,1,1,0,1,1,1,1,0,12.63,0,1,1,0,0,0,0,50,1,0,0,1,0,1,63.6,0,1,0,0,0,4.06196,3650,1,65.03
'Niigata University',1,1,5,1,0,0,0,0,0,0,0,1,8,0,1,1,0,0,0,10,1,1,1,1,0,1,0,1,1,1,1,1,1,0,0,0,1,1,1,0,0,0,0,1,1,1,1,12.63,0,1,1,0,0,1,0,100,1,0,0,0,1,0,20,0,1,0,0,0,-0.244519,8,0,65.01
'University of Lima',1,1,1,1,1,0,0,0,1,1,1,1,10,0,0,1,0,1,0,0,1,1,0,1,1,1,0,1,1,1,1,1,1,1,1,1,1,0,0,0,0,0,1,0,1,1,1,21,0,1,1,1,0,1,0,75,1,0,1,1,1,0,12.9,0,1,0,0,0,-0.429267,3650,1,64.97
'University of Rijeka',1,1,9,0,1,0,0,1,1,1,1,0,0,0,1,1,0,1,1,0,0,0,1,0,0,1,0,1,1,0,1,1,1,1,0,0,0,1,1,1,0,0,1,0,1,1,1,21,0,1,0,1,0,1,0,75,1,2,1,1,1,0,100,0,1,1,0,1.09861,-0.926389,0,0,64.95
'Addis Ababa University',1,1,1,1,0,1,1,1,0,0,1,0,0,1,1,1,0,1,1,1,1,1,0,1,0,1,0,1,1,0,1,1,1,0,1,0,1,0,1,0,0,0,0,0,1,1,1,20.01,0,0,0,1,0,0,0,90,1,0,1,1,1,0,95.9,0,1,0,0,0,-0.373169,1,0,64.91
'Gadjah Mada University',1,1,8,0,1,0,0,0,1,1,1,0,0,0,1,1,0,1,1,0,1,1,0,0,1,1,0,1,1,0,1,1,1,1,1,0,1,1,1,0,0,0,1,0,0,1,0,17.73,0,1,1,0,0,0,0,90,1,0,1,1,1,1,24.5,0,1,1,0,0,-1.76897,40,0,64.85
'Nanjing University',1,1,9,1,0,0,0,1,0,0,1,1,10,0,1,1,0,1,1,0,0,0,0,1,0,1,0,1,1,1,1,1,1,1,1,0,1,0,0,0,0,0,0,0,1,1,0,12.63,0,1,0,0,0,0,0,75,1,0,1,0,1,0,0,0,0,0,0,0,0.292261,2,0,64.84
'University of Michigan',1,1,9,1,0,0,0,0,0,0,1,0,1,1,0,1,1,0,1,2,1,1,0,0,0,1,0,0,1,1,1,1,1,0,1,1,1,0,1,0,0,0,0,0,1,1,0,18.26,0,0,0,0,0,0,0,75,1,0,1,1,1,1,100,0,1,0,0,0,-1.5548,3650,1,64.82
'Diponegoro University',1,1,2,1,1,0,0,1,0,0,1,1,6,1,1,1,1,1,1,0,1,1,0,0,0,1,0,1,0,0,1,1,1,1,0,0,1,0,1,1,0,0,1,0,1,1,1,12.63,0,1,1,0,0,0,0,90,1,0,1,0,1,1,63.2,0,1,0,0,0,-1.83298,16,0,64.8
'Matej Bel University',1,1,1,1,1,0,0,0,1,1,0,0,0,0,0,1,0,1,1,0,1,0,0,0,1,1,0,1,1,1,1,1,1,0,1,0,0,1,1,0,0,0,1,1,1,1,1,14.25,0,1,1,0,0,0,0,75,1,0,1,1,1,0,87.5,0,1,0,0,0,0.675804,3650,1,64.67
'National Yang Ming Chiao Tung University',1,1,10,1,0,0,0,1,0,0,0,1,3,0,1,1,1,1,0,0,1,1,0,1,0,1,0,1,1,1,1,1,0,0,1,0,1,1,1,0,0,0,1,1,1,1,1,15.43,0,1,1,0,0,0,0,75,1,0,1,0,1,0,69.2,0,1,0,0,0,-1.05641,1,0,64.44
'Chung-Ang University',0,1,6,1,0,0,0,0,0,0,1,1,10,1,1,1,1,1,0,0,0,0,1,1,0,1,0,1,1,1,1,1,1,0,1,0,1,0,1,0,0,0,1,0,1,1,0,21,0,1,0,1,0,0,0,75,1,0,0,0,0,1,14.3,0,1,0,0,0,-0.168466,681,0,64.42
'Burapha University',1,1,7,1,1,0,0,0,0,0,0,0,1,0,0,1,0,1,0,2,1,1,0,0,0,1,0,1,1,1,1,1,1,0,1,0,1,1,1,0,0,0,0,0,1,1,0,21,0,1,0,0,0,0,0,90,1,0,1,0,1,1,12.5,0,1,0,0,0,-1.6564,3650,1,64.42
'Erasmus University Rotterdam',1,1,3,1,1,0,0,1,0,0,1,0,0,0,1,1,1,1,1,0,0,0,0,0,0,1,0,1,1,0,0,1,1,0,1,1,1,1,1,1,0,0,0,0,0,1,1,14.5,0,1,0,0,0,1,0,75,1,1,1,1,1,0,100,0,1,1,0,0.693147,-0.171576,0,0,64.41
'Medical University of Vienna',0,1,20,1,1,0,0,0,0,1,0,1,4,0,0,1,0,1,1,7,1,0,0,0,1,1,0,1,1,1,1,1,1,0,1,1,1,0,1,0,0,0,0,0,1,1,1,18.62,0,1,0,0,0,0,0,75,1,0,1,1,1,0,0,0,1,0,0,0,1.20117,3650,1,64.4
'Sejong University',0,1,6,1,1,0,1,1,1,1,0,1,10,1,0,1,1,1,0,5,1,1,0,1,0,1,0,1,1,1,1,1,1,0,0,0,1,0,1,1,0,0,1,1,1,0,0,18.88,0,1,0,0,0,0,0,55,1,0,1,0,1,1,41.9,0,1,0,0,0,0.238884,3650,1,64.31
'Fontys University of Applied Sciences',1,1,5,1,1,1,0,0,1,1,0,0,0,1,1,1,1,1,1,1,1,1,1,1,1,1,0,0,1,0,1,1,1,0,0,1,0,1,1,1,0,0,1,0,0,0,1,8.32,0,1,1,0,0,0,0,100,1,0,1,1,1,0,25,0,1,0,0,0,0.283338,3650,1,64.29
'University College Copenhagen',1,1,4,1,1,0,0,0,0,0,0,0,0,0,1,1,0,1,0,0,1,0,1,0,0,1,0,0,1,0,1,1,1,0,1,1,0,0,1,0,0,0,1,0,0,1,1,21,0,1,0,0,0,1,0,90,1,0,1,1,1,1,100,0,1,0,0,0,-0.193643,5,0,64.27
'Yamagata University',1,1,5,1,1,0,0,0,0,0,0,0,0,1,1,1,0,1,1,2,0,0,1,1,0,1,0,1,1,1,1,1,1,0,0,0,1,0,1,0,0,0,1,1,1,0,0,21,0,1,1,0,0,0,0,75,1,0,1,0,0,0,5.9,0,0,0,0,0,-0.406054,130,0,64.23
'Tribhuvan University',1,1,8,1,0,0,0,0,1,1,0,0,1,1,0,1,0,0,1,2,1,1,0,0,0,1,0,1,1,1,1,1,1,1,1,0,1,0,1,0,0,0,1,0,1,1,1,15.43,0,1,1,0,0,0,0,75,1,0,1,0,1,0,42.9,0,1,0,0,0,0.953588,3650,1,64.16
'Autonomous University of Nuevo Leon',1,1,4,1,1,0,0,0,0,0,0,0,0,0,0,1,0,1,1,0,0,0,0,1,0,1,0,1,1,1,1,1,1,0,1,0,1,0,1,0,0,0,1,0,1,1,1,5.74,0,1,1,0,0,0,0,75,1,0,1,1,1,1,56.1,0,1,0,0,0,-0.882963,3650,1,64.13
'Kagawa University',1,1,4,1,0,0,0,0,0,0,0,0,1,0,0,0,0,1,0,0,0,0,1,0,0,1,1,1,1,1,1,1,1,1,0,1,1,0,1,0,0,0,1,1,1,1,1,21,0,1,1,0,0,0,0,90,1,0,0,1,0,0,73.1,0,1,0,0,0,-0.237897,3650,1,64.06
'University of Washington',0,1,7,1,0,0,0,1,1,1,0,0,0,0,0,1,1,1,1,1,0,0,0,0,0,1,0,1,1,1,1,1,0,1,1,1,1,1,1,0,0,0,0,0,1,1,0,10.86,0,1,0,0,0,0,0,75,1,0,0,1,0,0,71.4,0,1,1,0,0,-0.159553,3650,1,64.06
'New York University',1,1,5,1,0,1,0,0,0,0,1,0,0,1,0,1,0,1,1,0,0,0,0,0,0,1,0,1,1,0,1,1,1,0,0,0,1,1,1,0,0,1,0,0,1,1,1,19.68,0,1,1,0,1,0,0,90,1,0,0,1,0,0,53.8,0,1,1,0,0,-1.14772,3650,1,63.89
'Technical University of Cluj-Napoca',1,1,7,1,0,0,0,1,1,1,1,0,0,0,1,1,1,1,1,0,0,0,1,0,0,1,0,1,0,1,1,0,1,1,0,0,1,0,1,0,0,0,1,0,1,1,1,7.02,0,1,1,0,0,0,0,75,1,0,1,1,1,0,4.2,0,0,0,0,0,-1.15533,260,0,63.84
'Shanghai University',1,1,6,0,0,0,0,0,0,0,0,0,0,0,0,1,1,1,1,3,1,1,0,1,0,1,0,1,1,1,1,1,1,1,0,1,0,0,1,1,0,0,1,0,1,0,1,12.63,0,1,0,0,0,0,0,75,1,2,1,0,0,0,0,0,1,0,0,1.09861,0.642422,3650,1,63.82
'University of Bialystok',1,1,20,0,0,0,0,0,0,0,1,1,10,0,1,1,0,1,1,0,1,1,1,1,0,1,0,1,1,1,1,1,1,0,1,0,1,0,1,0,0,0,1,1,1,1,1,21,0,1,1,0,0,0,0,75,1,59,1,1,1,0,100,0,1,1,0,4.09434,-0.879635,113,0,63.76
'Technical University of Kosice',1,1,2,0,1,0,0,0,0,0,0,1,10,0,1,1,0,1,0,2,1,0,1,0,0,1,0,0,1,1,1,1,1,0,1,0,0,1,0,0,0,0,0,0,1,1,0,21,0,1,0,1,0,0,0,90,1,0,1,1,1,1,100,0,1,1,0,0,-0.831985,14,0,63.7
'Grinnell College',1,1,5,1,0,0,0,0,0,0,1,1,4,0,0,1,1,1,1,0,1,1,0,0,0,1,0,1,1,0,1,1,1,1,1,1,1,0,0,0,0,0,1,0,0,1,1,12.63,0,1,1,0,0,0,0,90,1,0,1,1,1,1,88.9,0,1,1,0,0,-0.389505,3650,1,63.69
'Aalborg University',0,1,5,0,0,0,0,1,0,0,0,0,0,0,1,1,0,1,1,6,1,1,1,0,1,1,0,1,1,0,1,1,1,0,1,0,1,1,1,0,0,0,1,0,0,1,1,15.77,0,1,0,0,0,0,0,90,1,0,1,1,1,1,8.7,0,1,1,0,0,0.851254,0,0,63.67
'Aix-Marseille University',1,1,2,0,1,0,0,0,0,0,1,0,0,1,1,1,0,0,0,0,1,1,1,0,0,1,0,1,1,1,1,1,1,0,0,1,1,1,1,1,0,0,0,1,0,1,1,16.88,0,0,1,0,0,0,0,100,1,0,1,1,1,0,24,0,1,1,0,0,-0.357568,0,0,63.62
'University of Cambridge',1,1,2,0,0,0,0,0,0,0,0,0,0,0,0,1,0,1,1,5,1,1,0,0,0,1,0,1,1,1,1,1,1,0,1,1,1,1,1,0,0,0,0,0,1,1,0,15.43,0,1,0,0,0,0,0,75,1,0,1,1,1,1,72.7,0,1,1,0,0,-1.27588,3650,1,63.58
'Ivan Franko National University of Lviv',0,1,7,1,1,0,0,1,0,0,1,1,6,0,1,1,0,1,0,0,0,0,1,0,0,1,0,1,1,1,1,1,1,0,1,0,1,0,1,0,0,0,0,0,1,1,1,11.29,0,1,0,0,0,0,0,75,1,0,0,0,1,1,0,1,1,1,0,0,-0.612005,686,0,63.44
'Rensselaer Polytechnic Institute',1,1,4,0,0,0,0,0,1,1,0,0,0,0,0,1,1,1,1,0,1,1,0,0,0,1,0,1,1,1,1,1,1,0,1,0,1,0,1,0,0,0,1,0,1,1,1,15.43,0,1,1,0,0,0,1,75,1,0,1,0,1,1,100,0,1,1,0,0,-1.3756,3650,1,63.38
'Toronto Metropolitan University',1,1,8,1,0,1,0,0,0,0,1,0,0,0,0,1,0,1,1,0,1,0,0,0,1,1,0,1,1,0,1,1,1,1,1,1,1,0,1,0,0,0,0,0,0,1,0,21,0,1,0,0,0,0,0,90,1,0,1,1,1,0,85.7,0,1,1,0,0,3.48756,3650,1,63.3
'University of Catania',1,1,2,1,1,0,0,0,0,0,0,0,0,1,1,1,0,1,0,0,1,1,0,0,0,1,0,1,0,0,1,1,1,1,1,0,1,0,1,1,0,0,1,1,0,1,1,17.57,0,1,1,0,0,0,0,75,1,0,1,1,1,0,85.7,0,1,0,0,0,-0.88895,284,0,63.22
'Trinity College',0,1,3,1,0,0,0,0,0,0,0,1,6,1,1,1,0,1,1,19,1,1,1,1,1,1,0,1,1,0,1,1,1,0,0,1,1,1,0,0,0,0,1,0,1,1,1,21,0,1,0,0,0,0,0,100,1,0,1,1,1,1,55.6,0,1,0,0,0,-0.0870461,0,0,63.17
'Tokyo Medical and Dental University',1,1,4,1,0,0,1,1,0,0,1,1,6,1,1,1,0,1,0,20,1,0,1,1,0,1,0,1,1,0,1,1,1,1,1,0,1,1,1,0,0,0,0,1,1,1,0,15.91,0,1,1,0,0,0,0,75,1,0,1,0,1,0,2.6,0,1,0,0,0,-1.31025,662,0,63.1
'Bowdoin College',1,1,8,1,1,0,0,0,0,0,1,0,0,0,0,1,1,1,0,0,0,0,0,1,0,1,0,1,1,0,1,1,1,1,0,1,1,1,1,0,0,0,0,0,0,1,0,21,0,1,0,0,0,0,0,75,1,0,1,1,1,1,90.9,0,1,1,0,0,-0.254227,3650,1,62.74
'University of Innsbruck',1,1,0,1,1,0,0,0,1,1,0,0,1,0,0,1,1,1,1,0,1,1,0,0,1,1,0,1,1,1,1,1,1,0,0,1,1,0,1,1,0,0,1,0,0,1,1,13.2,0,0,1,1,0,1,0,100,1,0,1,0,1,0,17.6,0,1,1,0,0,-0.120896,3650,1,62.74
'Cardinal Stefan Wyszynski University',1,1,1,1,1,0,0,0,1,1,0,0,0,0,1,0,1,0,0,0,1,1,1,1,0,1,0,0,1,1,1,1,1,1,1,0,0,1,1,0,0,0,1,0,1,1,1,15.13,0,1,1,0,0,0,0,90,1,0,1,0,1,0,21.2,0,1,0,0,0,2.5999,116,0,62.55
'Indian Statistical Institute',1,1,8,1,0,0,0,0,0,0,1,0,1,1,0,1,1,1,1,0,0,0,0,0,0,1,0,1,1,0,1,1,1,1,1,0,1,0,1,1,0,0,0,0,1,1,1,13.92,0,1,0,0,0,0,0,75,1,0,1,1,1,0,12.5,0,0,0,0,0,-0.833733,3650,1,62.54
'University of Nis',1,1,3,1,1,0,0,0,1,1,0,1,3,0,1,1,0,0,0,0,1,1,1,1,0,1,0,1,1,1,1,1,1,1,0,0,0,0,1,1,0,0,0,0,1,1,0,21,0,1,1,0,0,0,0,75,1,2,1,1,0,0,72.7,0,1,0,0,1.09861,1.87476,5,0,62.38
'University of Turku',0,1,6,0,1,0,0,0,0,0,0,1,10,1,1,1,0,1,1,20,0,0,1,0,0,1,0,0,1,1,1,1,0,0,1,1,1,0,1,1,0,0,0,0,0,1,0,18.76,0,1,0,0,0,1,0,100,1,0,1,1,1,0,100,0,1,0,0,0,1.89882,0,0,62.38
'Sogang University',1,1,11,0,0,0,0,0,0,0,0,1,10,1,0,1,1,1,1,0,0,0,0,0,1,1,0,1,1,1,1,1,1,1,0,0,0,0,0,1,0,0,1,1,1,1,1,21,0,1,0,1,0,0,0,75,1,0,0,0,1,1,100,0,1,0,0,0,-0.0472647,3650,1,62.3
'National University of Kyiv-Mohyla Academy',1,1,5,1,0,0,1,1,0,0,1,1,2,0,0,1,0,1,0,0,0,0,0,0,0,1,0,1,1,1,0,1,1,0,1,1,0,0,1,0,1,0,0,0,1,1,0,19.95,0,1,0,0,0,0,0,75,1,0,1,1,1,1,88.2,0,1,0,0,0,0.358196,3650,1,62.26
'Heriot-Watt University',0,1,2,1,1,0,0,1,0,0,1,0,0,0,1,1,1,0,0,0,0,0,0,0,0,1,0,1,0,0,0,1,1,1,1,1,0,1,1,0,0,0,1,0,1,1,1,21,0,1,0,0,0,0,0,90,1,0,1,1,1,1,23.3,0,1,1,0,0,-1.45266,5,0,62.07
'Emory University',1,1,2,1,0,0,0,0,0,0,0,0,1,0,0,1,0,1,1,0,1,1,0,1,1,1,0,1,1,1,1,1,1,0,0,1,1,1,1,0,0,0,1,0,1,1,1,21,0,1,1,0,0,0,0,100,1,0,1,0,1,1,37.9,0,1,1,0,0,0.0579683,3650,1,62.05
'Gifu University',1,1,6,1,0,0,0,0,1,1,0,0,1,0,1,1,1,1,0,2,0,0,1,0,0,1,0,1,1,1,1,1,0,0,0,1,1,1,1,0,0,0,0,0,1,1,0,21,0,1,1,0,0,1,0,75,1,0,0,1,1,0,89.5,0,1,0,0,0,0.309317,4,0,62.02
'University of Zululand',1,1,7,1,1,0,0,0,1,0,1,1,4,1,0,1,1,1,0,1,1,1,1,0,0,1,1,1,1,0,1,1,1,0,1,1,1,0,1,1,0,0,0,0,1,1,0,8.21,0,1,0,0,0,0,0,90,1,0,1,0,1,0,55.2,0,1,0,0,0,0.885258,3650,1,61.98
'Democritus University of Thrace',1,1,1,1,1,1,0,0,0,0,1,0,0,1,0,1,1,0,1,1,1,1,0,0,0,1,0,1,1,1,0,1,1,0,1,1,1,1,1,1,0,0,0,0,1,1,0,16.95,0,1,0,0,0,0,0,90,1,0,1,1,1,0,15,0,1,1,0,0,-0.412269,3650,1,61.87
'Czech Technical University in Prague',1,1,2,0,1,0,0,0,0,0,1,0,0,1,0,1,0,1,1,2,1,1,0,0,0,1,0,1,1,1,1,1,1,0,1,1,1,1,1,0,0,0,0,0,1,1,1,1.41,0,1,1,0,0,0,0,75,1,0,1,1,1,0,6.7,0,1,0,0,0,-0.612901,3650,1,61.8
'University of Cantabria',1,1,5,1,1,0,0,0,0,0,1,0,0,0,0,1,0,1,0,0,0,0,0,0,0,1,0,1,1,1,1,1,1,0,0,0,0,1,1,1,0,0,0,1,0,1,0,7.59,0,1,0,0,0,0,0,75,1,0,1,1,0,0,92.6,0,1,0,0,0,-0.263048,3650,1,61.71
'University of Basilicata',1,1,5,1,1,0,0,0,0,0,0,0,0,1,0,0,0,1,0,0,0,0,0,0,1,1,0,0,1,1,0,0,1,1,0,0,1,0,1,1,0,1,1,0,0,1,1,21,0,1,1,0,0,0,0,75,1,2,0,1,1,0,100,0,1,0,0,1.09861,-0.712322,3650,1,61.6
'ISCTE University Institute of Lisbon',1,1,6,1,1,0,0,1,0,0,1,1,6,0,1,1,0,1,1,0,1,1,0,0,0,1,0,1,1,1,0,1,1,1,1,0,1,0,0,0,0,0,0,0,1,1,0,21,0,1,0,0,0,0,0,75,1,0,1,1,1,0,100,0,1,0,0,0,0.193569,228,0,61.44
'Institute of Technology of Cambodia',1,1,9,1,0,0,0,0,0,0,0,0,0,0,0,1,0,1,1,2,1,0,0,0,0,1,1,1,1,0,1,1,1,1,1,0,1,0,1,0,0,0,1,0,0,1,1,10.35,0,1,1,0,0,0,0,90,1,0,1,0,1,1,95.6,0,1,0,0,0,0.794526,3650,1,61.35
'Plovdiv University Paisii Hilendarski',1,1,7,1,0,0,0,0,0,0,0,0,0,0,0,1,0,1,1,2,1,1,0,0,0,1,1,1,0,1,1,0,1,1,1,0,0,0,0,0,0,0,0,0,1,1,0,21,0,1,0,0,0,0,0,75,1,0,1,1,1,1,92.7,0,1,0,0,0,-0.550741,3650,1,61.02
'Saxion University of Applied Sciences',1,1,5,1,1,0,0,0,0,0,0,0,1,0,1,1,0,1,1,0,0,0,0,0,1,1,0,0,1,0,0,1,1,1,0,0,1,1,1,0,0,0,1,0,1,1,1,16.82,0,1,0,0,0,1,0,100,1,0,1,1,1,0,83.3,0,1,0,0,0,1.11339,0,0,61
'Chang Gung University',1,1,6,1,0,0,0,0,0,0,1,0,0,1,0,1,1,1,0,0,1,1,0,0,0,1,0,1,1,0,1,1,1,0,1,0,1,0,1,1,0,0,1,1,1,1,1,15.43,0,1,1,0,0,0,0,75,1,0,1,0,1,0,90,0,1,0,0,0,-0.406054,3650,1,60.92
'University of Reading',1,1,2,1,0,0,0,1,0,0,0,1,2,1,0,1,0,0,0,0,0,0,0,0,0,1,0,1,1,1,1,1,1,0,0,1,1,0,1,0,1,0,1,1,1,1,1,21,0,1,1,0,0,0,0,75,1,1,0,1,1,1,25,0,1,1,0,0.693147,-1.09571,3650,1,60.91
'Asia University Taiwan',1,1,3,1,1,0,0,1,0,0,1,1,10,1,1,1,1,1,0,0,0,1,0,0,0,1,0,1,1,0,1,1,0,0,1,1,1,0,1,1,1,0,0,1,1,1,0,18.58,0,1,0,0,0,1,0,50,1,1,1,1,1,0,81.1,0,1,0,0,0.693147,-0.31435,0,0,60.83
'HAN University of Applied Sciences',1,1,8,0,1,1,0,0,0,0,0,1,5,1,0,1,1,1,1,1,1,1,1,0,0,1,0,0,1,0,1,1,1,0,0,1,1,1,1,1,0,0,0,0,1,1,1,21,0,1,0,0,0,1,0,100,1,0,1,1,1,0,90.9,0,1,0,1,0,4.2248,3650,1,60.75
'Federal University of Technology Owerri',1,1,12,0,0,0,0,0,0,0,0,1,6,0,1,1,0,1,1,2,1,1,1,1,0,1,0,1,1,0,1,1,0,0,1,1,1,0,1,1,0,1,1,0,1,0,1,19.9,0,1,0,1,0,0,0,75,1,0,1,0,1,1,63.6,0,1,0,0,0,-0.610745,24,0,60.64
'Tokyo Institute of Technology',1,1,6,1,1,0,0,0,0,0,1,0,0,0,1,1,1,1,1,1,1,1,1,0,0,1,0,1,1,1,1,1,0,0,0,0,1,0,1,0,0,0,0,1,1,1,1,12.63,0,1,1,0,0,0,0,90,1,0,1,1,1,0,70.5,0,1,1,0,0,-1.79466,657,0,60.58
'National University of Laos',1,1,10,0,1,0,0,0,0,0,1,0,0,0,1,1,0,1,1,0,1,1,0,0,0,1,0,1,1,1,1,1,1,1,1,0,1,0,0,0,0,0,1,0,1,1,0,15.43,0,1,1,0,0,0,0,75,1,2,1,0,0,1,30.3,0,0,0,0,1.09861,-0.321173,187,0,60.41
'Technical University of Denmark',0,1,7,1,1,0,0,0,1,1,0,1,3,0,0,1,1,0,0,10,1,1,0,0,1,0,0,0,0,1,0,1,1,0,1,1,1,0,1,1,0,0,1,0,1,1,1,21,0,0,0,0,0,0,0,90,1,0,1,1,0,0,40,0,1,0,0,0,0.53068,3650,1,60.31
'Northeastern University',1,1,20,1,0,0,0,0,0,0,0,0,0,0,0,1,0,1,1,0,1,0,0,1,1,1,0,1,1,1,1,1,1,0,1,1,1,0,0,0,0,0,0,0,1,1,0,9.93,0,1,0,1,0,0,0,90,1,2,1,0,1,1,46.7,0,1,1,0,1.09861,-0.131793,3650,1,60.25
'International Islamic University Malaysia',1,1,9,1,0,0,0,0,0,0,1,0,0,0,1,1,1,1,0,0,1,0,0,0,0,1,0,1,1,0,1,1,0,1,1,0,1,0,1,0,0,0,1,1,0,1,1,21,0,1,1,0,0,1,0,90,1,0,1,0,1,0,26.3,0,1,1,0,0,0.492324,0,0,60.23
'University College Dublin',1,1,4,1,0,0,1,1,0,0,1,0,0,0,0,1,0,0,1,2,1,1,0,0,0,1,0,0,1,1,1,1,1,0,1,1,1,0,0,0,0,0,1,0,1,1,1,14.78,0,1,0,0,0,0,1,100,1,0,1,1,1,1,100,0,1,1,0,0,0.430531,3650,1,60.15
'Nanchang University',1,1,8,0,0,0,0,0,0,0,1,0,0,0,1,1,0,1,1,0,0,0,0,0,1,1,0,1,1,1,0,1,1,0,1,1,0,0,1,0,0,1,1,0,1,1,0,21,0,1,1,0,0,0,0,75,0,0,1,0,1,0,0,0,0,0,0,0,0.715263,33,0,60
'Wageningen University & Research',0,1,6,1,1,0,0,0,0,0,0,0,0,0,0,1,0,1,1,0,1,1,1,0,1,1,0,0,1,0,1,1,1,0,1,1,1,1,1,0,0,0,0,0,0,1,1,19.42,0,1,0,0,0,0,0,80,1,0,1,1,1,0,11.1,0,1,1,0,0,0.392217,3650,1,59.58
'Gachon University',1,1,6,0,0,0,0,0,1,1,0,1,4,0,0,1,0,1,0,0,0,0,1,0,1,1,0,1,1,1,1,1,1,1,0,0,0,0,0,0,1,0,0,1,1,1,0,12.63,0,1,0,0,0,1,0,75,1,0,0,1,1,1,16.7,0,1,0,0,0,-0.630398,3650,1,59.48
'University of Palermo',1,1,3,0,0,1,0,1,1,1,0,0,0,0,0,1,0,1,1,0,0,0,0,0,0,1,1,0,1,0,1,1,1,1,0,0,0,1,1,1,1,0,1,0,0,1,1,12.63,0,1,1,1,0,0,0,75,1,0,1,1,1,0,100,0,1,0,0,0,-0.0539966,3650,1,59.34
'UCL University College',1,1,7,0,1,0,0,0,0,0,0,1,10,0,1,1,0,1,1,0,1,1,1,0,0,1,0,0,0,0,0,1,1,0,1,1,0,1,1,0,0,0,1,0,1,1,1,15.43,0,1,1,1,0,1,0,100,1,0,1,0,1,1,73.8,0,1,0,0,0,0.89175,0,0,59.18
UNIST,1,1,3,1,1,0,0,0,0,0,1,1,10,0,1,1,0,1,0,0,0,0,0,1,1,1,0,1,1,0,1,1,1,1,0,0,0,1,0,0,0,0,1,1,1,1,1,21,0,1,1,0,0,1,0,75,1,0,1,0,1,1,11.2,0,1,0,0,0,0.225841,44,0,59.04
'University of Chile',1,1,7,1,1,0,0,0,1,0,1,0,0,0,0,0,1,0,0,0,0,0,0,0,0,1,0,1,1,1,1,1,1,0,1,0,0,0,1,0,0,0,1,0,1,1,1,21,0,1,1,0,0,0,0,75,1,0,1,1,1,1,40,0,1,0,0,0,1.51917,3650,1,58.94
'Rzeszow University of Technology',1,1,4,1,0,0,0,0,0,0,0,0,0,0,0,1,0,0,0,0,1,1,0,0,0,1,0,1,1,1,1,1,1,0,1,0,0,0,1,1,0,0,1,1,0,1,1,21,0,1,1,0,0,0,0,75,1,2,1,0,1,0,78.6,0,1,1,0,1.09861,0.569755,3650,1,58.46
'Massachusetts Institute of Technology',0,1,11,1,0,0,0,0,0,0,0,0,0,0,1,1,0,1,1,1,1,1,0,1,0,0,0,1,1,0,1,1,0,1,0,1,1,0,1,0,0,0,0,0,0,1,1,21,0,0,0,0,0,1,0,75,1,0,1,0,1,1,100,0,1,1,0,0,-1.81562,0,0,58.17
'Design School Kolding',1,1,5,1,1,0,0,0,0,0,0,1,4,0,1,1,0,0,1,0,1,1,1,0,1,1,0,1,1,0,1,1,1,0,0,1,1,0,1,0,0,0,1,0,0,1,1,21,0,1,0,0,0,1,0,75,1,0,1,1,1,1,95.7,0,1,0,0,0,0.401917,6,0,58.13
'University of Duisburg-Essen',1,1,7,0,1,0,0,0,0,0,0,1,3,0,1,1,1,1,1,0,1,1,1,0,0,1,0,1,1,0,0,1,1,0,0,1,1,1,1,1,0,0,1,0,1,1,1,21,0,1,1,0,0,0,0,75,1,0,1,0,1,0,71.4,0,1,1,0,0,0.90048,4,0,58.02
'University of Oslo',1,1,1,1,1,0,0,0,1,1,1,0,0,0,1,1,0,0,0,17,1,1,1,0,0,0,0,0,1,0,1,1,1,0,1,0,0,0,1,1,0,0,1,0,0,1,0,21,0,0,0,0,0,0,0,75,1,0,1,1,1,0,100,0,1,1,0,0,-0.713303,0,0,57.93
'Hassan II University of Casablanca',1,1,3,1,1,0,0,0,1,1,0,1,10,0,1,1,0,1,0,1,1,1,0,1,0,1,0,1,1,0,0,1,1,1,1,1,0,0,1,1,0,0,1,0,1,1,1,21,0,1,1,0,0,0,0,75,1,0,0,0,1,0,23.7,0,1,0,0,0,1.18959,957,0,57.92
'Mekelle University',1,1,6,1,0,0,0,1,0,0,1,0,0,1,1,1,0,0,1,0,0,0,0,0,0,0,0,0,1,0,1,1,1,0,1,0,1,0,1,1,0,0,0,0,1,1,0,15.33,0,0,1,0,0,0,0,90,1,21,1,1,1,1,100,0,1,0,0,3.09104,-1.20932,7,0,57.83
'Christ University',1,1,2,1,1,0,0,0,0,0,0,0,0,1,0,1,0,0,1,0,1,0,0,1,0,1,0,1,1,0,1,1,1,1,1,0,1,1,1,0,0,0,0,0,1,1,1,12.63,0,1,1,0,0,0,0,75,1,0,0,1,1,1,100,0,1,1,0,0,0.403982,3650,1,57.44
'University of Oulu',1,1,2,1,1,0,0,1,0,0,0,1,2,1,1,1,0,1,0,0,0,0,1,0,0,1,0,0,1,1,0,1,0,0,1,1,1,1,1,0,0,0,1,0,0,1,1,15.92,0,1,1,0,0,1,0,75,1,0,1,1,1,0,13.3,0,1,0,0,0,-0.593997,8,0,57.41
'Kabul University',1,1,2,1,0,0,0,0,0,0,1,0,0,1,1,1,0,0,1,0,1,1,0,0,0,1,1,1,1,1,1,1,1,0,0,1,0,1,0,0,0,0,0,0,1,1,0,11.37,0,1,1,0,0,0,0,75,1,2,1,0,1,1,43.3,0,1,0,0,1.09861,0.438362,0,0,57.26
'University of Vaasa',1,1,9,1,1,0,0,1,1,2,0,1,10,1,1,1,0,1,0,8,1,0,1,0,0,1,0,0,1,0,0,1,0,0,1,1,1,1,1,0,0,0,1,0,0,1,1,21,0,1,1,0,0,0,0,100,1,0,1,0,1,0,100,0,1,0,0,0,0.915757,0,0,57.14
'Federation University Australia',1,1,0,0,0,0,0,1,0,0,0,0,0,0,0,0,0,1,0,0,1,1,0,0,0,1,0,1,1,0,1,1,1,1,1,1,0,1,1,0,0,0,1,0,1,1,1,21,0,1,1,1,0,0,0,100,1,0,1,1,1,1,50,0,1,1,0,0,-0.53571,3650,1,57.05
'University of Kelaniya',1,1,14,1,0,0,0,1,0,0,0,0,0,1,0,1,0,0,1,0,0,0,0,0,0,1,0,1,1,1,1,1,1,0,1,1,0,0,1,1,0,0,0,0,0,0,0,21,0,1,1,0,0,0,0,55,1,0,1,0,1,0,0,0,1,0,0,0,-0.697513,3650,1,56.96
'KU Leuven',1,1,2,1,1,0,0,0,0,0,1,0,0,0,0,1,0,1,1,0,0,0,1,0,0,1,0,0,0,1,0,1,1,0,0,1,1,1,1,1,0,0,0,0,1,1,0,12.63,0,1,0,0,0,0,0,75,1,0,1,1,1,0,100,0,1,1,0,0,-0.156784,3650,1,56.83
'Aristotle University of Thessaloniki',1,1,0,0,1,0,0,0,0,0,0,0,1,1,1,1,0,0,1,5,1,1,1,0,0,1,0,1,0,1,1,0,1,0,0,0,0,1,1,0,0,0,0,0,1,1,1,12.63,0,1,1,0,0,1,0,90,1,0,1,0,1,0,77.8,0,1,0,0,0,0.97102,0,0,56.76
'Bond University',1,1,0,1,1,0,0,1,0,0,0,0,1,1,0,0,0,1,0,0,0,0,0,0,1,1,0,1,1,0,1,1,1,0,1,1,1,1,1,1,0,0,0,0,0,1,1,17.06,0,1,0,0,0,0,1,100,1,0,1,1,1,1,75,0,1,0,0,0,-0.102445,3650,1,56.7
'University of Maryland, College Park',1,1,0,0,0,0,0,1,0,0,0,1,3,0,0,1,1,1,1,0,0,0,0,1,1,1,0,1,1,1,1,1,1,0,0,0,0,1,1,1,0,0,1,0,0,1,0,21,0,1,1,1,0,0,0,75,1,0,1,1,1,1,100,0,1,0,0,0,-0.296074,3650,1,56.67
'University of Zagreb Faculty',1,1,6,1,0,0,0,0,0,0,0,1,4,0,0,1,0,1,1,0,1,1,0,0,1,1,0,1,1,0,1,1,1,0,0,0,0,0,1,0,0,1,0,0,1,1,0,14.99,0,1,0,0,0,0,0,75,1,0,1,0,1,0,28.6,0,1,1,0,0,-0.569371,3650,1,56.65
'Ruhr University Bochum',1,1,2,0,1,0,0,1,0,0,1,1,8,0,0,1,1,1,1,1,1,1,0,1,1,1,0,1,1,0,1,1,1,0,0,1,1,1,1,0,0,0,1,0,0,1,1,8.28,0,1,1,0,0,0,1,100,1,0,1,1,1,0,100,0,1,1,0,0,0.902177,3650,1,56.4
'Mie University',1,1,5,1,0,0,0,0,0,0,1,1,10,0,0,1,0,1,1,0,1,0,1,0,0,1,0,1,1,1,1,1,0,1,0,0,0,0,1,0,0,0,1,1,1,1,1,21,0,1,1,0,0,0,0,100,1,1,0,1,1,0,2.6,0,1,0,0,0.693147,-0.227061,3650,1,56.35
'National University of San Luis',1,1,6,1,0,0,0,0,0,0,1,1,9,1,0,1,1,0,1,0,1,1,0,1,0,1,0,0,0,1,1,0,0,1,1,0,1,0,1,0,0,0,1,1,0,1,1,13.06,0,1,1,0,0,0,0,75,1,0,1,1,1,0,98.6,0,1,0,0,0,-0.448621,3650,1,56.05
'Universiti Malaysia Sarawak',1,1,6,0,0,0,0,0,0,0,1,1,4,0,1,0,0,1,0,0,0,0,0,1,0,1,0,1,1,1,1,1,1,0,0,0,0,0,0,0,0,0,0,1,1,0,0,15.33,0,0,1,0,0,0,0,75,1,0,1,1,1,1,100,0,1,1,0,0,-0.35348,167,0,55.44
'Veracruzana University',1,1,9,1,1,0,0,0,0,0,0,0,1,0,0,0,0,1,0,0,0,1,0,0,0,1,0,0,1,1,0,1,1,0,0,0,0,0,1,0,1,0,0,0,1,1,0,15.43,0,1,0,0,0,0,0,75,1,0,1,1,1,1,100,0,1,0,0,0,-0.865853,3650,1,55.24
'Shizuoka University',1,1,6,0,0,0,0,0,0,0,1,1,4,0,1,1,0,1,1,0,1,1,0,0,0,1,0,1,1,1,1,1,0,1,1,0,1,0,0,1,0,0,1,0,1,0,1,12.09,0,1,1,0,0,0,0,75,1,1,0,1,0,0,8.4,0,1,0,0,0.693147,-0.670731,102,0,55.03
'University of East Anglia',1,1,0,1,0,0,0,1,0,0,1,0,0,0,0,1,0,0,1,0,1,1,0,1,0,1,0,0,1,0,1,1,1,1,0,1,1,1,1,0,0,0,1,0,1,1,1,20.29,0,1,0,0,0,0,1,90,1,0,1,1,1,1,100,0,1,1,0,0,-0.906811,3650,1,54.98
'National Technical University of Athens',1,1,6,0,1,0,0,0,0,0,0,0,0,0,0,1,0,1,0,0,1,1,0,0,0,1,0,1,0,1,0,1,1,0,1,0,0,0,1,0,0,0,1,0,1,1,1,9.01,0,1,0,0,0,0,0,90,1,0,0,0,1,0,73.8,0,1,0,0,0,0.870346,3650,1,54.89
'KTH Royal Institute of Technology',1,1,3,1,1,0,1,1,0,0,0,0,0,0,0,1,0,1,1,0,1,1,0,0,0,1,0,0,0,0,0,1,1,0,1,1,1,0,1,1,0,0,1,0,0,0,1,15.69,0,0,1,0,0,0,0,75,1,0,1,1,1,0,93.8,0,1,1,0,0,-0.35975,3650,1,54.86
'University of La Frontera',1,1,9,1,0,0,0,0,1,1,0,1,10,0,0,1,1,1,0,1,1,1,0,1,0,1,0,0,0,1,1,1,1,0,0,0,0,0,0,0,0,0,0,0,0,1,0,21,0,1,0,0,0,0,0,90,1,0,1,0,1,1,7.4,0,1,0,0,0,1.22353,3650,1,54.69
'Sapienza University of Rome',1,1,6,1,1,0,1,1,0,0,1,0,0,0,1,1,0,0,0,2,1,1,1,0,0,1,0,1,0,0,0,1,1,1,0,0,0,0,0,1,0,0,1,0,1,1,1,21,0,1,1,0,0,0,0,90,1,0,1,1,0,1,100,0,1,0,0,0,-1.46881,3,0,54.67
'Utrecht University',1,1,5,1,1,0,0,0,0,0,0,0,0,0,0,1,0,0,1,0,0,0,0,0,0,1,0,1,1,0,1,1,1,0,1,1,1,0,1,1,0,0,0,0,0,1,0,10.37,0,1,1,0,0,0,0,100,1,0,1,1,1,0,33.3,0,1,0,0,0,-1.32729,3650,1,54.65
'University College Absalon',1,1,7,1,1,0,0,0,0,0,0,1,3,0,0,1,0,1,0,0,1,1,1,0,1,1,0,0,1,0,1,1,1,0,0,1,0,0,1,0,0,0,1,0,0,1,1,9.54,0,1,1,0,0,0,0,75,1,0,1,0,1,1,100,0,1,0,0,0,0.786751,3650,1,54.3
'Tata Institute of Fundamental Research',1,1,1,0,0,0,0,0,0,0,1,0,0,0,0,1,0,1,0,0,0,0,0,0,0,1,0,1,1,0,1,1,1,0,0,1,1,1,1,0,0,0,1,1,1,1,1,17.04,0,1,1,1,0,0,0,75,1,0,0,1,1,1,100,0,1,1,0,0,0.432822,3650,1,53.87
'University of Kragujevac',0,1,0,0,1,0,0,0,0,0,1,0,0,0,1,0,0,1,0,0,1,1,0,1,0,1,0,0,0,0,1,1,1,1,0,0,1,0,0,0,0,1,0,0,0,0,0,21,0,1,0,0,0,0,0,75,1,0,0,1,1,0,100,0,1,0,0,0,-1.15479,0,0,53.73
'University of Freiburg',1,1,7,1,1,0,0,1,0,0,0,0,1,0,0,1,0,1,0,0,1,1,0,0,1,1,0,0,0,0,1,1,1,0,0,0,0,1,1,0,0,0,1,0,0,1,1,14.35,0,1,0,0,0,0,0,90,1,0,1,0,1,0,71.2,0,1,1,0,0,0.43344,3650,1,53.61
'Universiti Malaysia Terengganu',1,1,0,0,1,0,0,1,0,0,1,0,0,0,0,1,0,1,0,1,1,1,0,1,0,1,0,1,1,0,1,1,1,0,0,1,1,0,1,0,0,1,1,0,0,1,1,21,0,1,1,0,0,0,0,90,1,0,1,0,1,0,0,0,1,0,0,0,1.53117,3650,1,53.42
'Ludwig Maximilian University of Munich',1,1,3,1,0,0,0,1,0,0,0,1,3,0,0,1,0,1,0,2,0,0,0,0,0,0,0,0,0,0,0,1,1,0,0,1,0,0,1,0,0,0,1,1,1,1,1,21,0,0,1,0,0,0,0,90,1,0,1,1,1,1,85.7,0,1,1,0,0,-0.735127,3650,1,53.39
'University of the Basque Country',1,1,1,1,1,1,0,0,0,0,0,1,7,0,0,1,0,0,1,0,1,1,1,0,0,1,0,1,1,0,1,1,1,1,0,0,0,1,1,1,0,0,0,1,0,1,0,19.95,0,1,1,0,0,1,0,75,1,0,1,0,1,0,84.6,0,1,1,0,0,0.402621,3650,1,53.22
'University of Rhode Island',1,1,1,1,0,0,0,1,0,0,0,0,0,0,0,1,0,1,1,0,1,1,0,1,1,1,1,1,1,0,1,1,1,0,1,0,1,0,0,0,0,0,0,0,1,1,1,20.12,0,1,1,0,0,0,0,90,1,0,1,1,1,1,42.1,0,1,1,0,0,-0.312233,3650,1,52.1
'Taipei Medical University',1,1,5,1,0,0,1,1,0,0,1,0,0,0,0,1,0,1,1,1,1,1,0,0,0,1,0,1,1,1,1,1,0,0,0,0,1,0,1,1,0,0,0,1,0,0,0,15.43,0,1,1,0,0,1,0,55,1,0,0,1,0,0,100,0,1,0,0,0,-0.438963,3650,1,52.05
'Tallinn University of Technology',1,1,6,0,1,0,0,0,0,0,0,1,10,0,1,0,0,1,0,9,1,1,1,0,0,1,0,0,1,0,0,1,1,0,0,0,0,1,0,0,0,0,1,0,1,1,1,15.91,0,1,1,0,0,1,0,100,1,0,1,1,1,1,71.9,0,1,0,0,0,-1.00664,0,0,51.83
'University of Sassari',1,1,5,1,1,0,0,0,1,0,0,0,0,0,0,1,0,1,0,0,1,1,1,1,0,1,0,1,0,0,0,1,1,0,0,0,1,0,1,0,0,0,1,1,0,1,1,12.63,0,1,1,1,0,0,0,75,1,0,1,1,1,0,100,0,1,1,0,0,2.25363,3650,1,51.77
'Yokohama National University',1,1,5,1,1,0,0,0,0,0,0,0,0,1,0,1,0,1,0,0,1,1,0,0,1,1,0,1,1,0,1,1,1,0,0,0,1,0,1,0,0,0,0,0,1,1,1,12.63,0,1,1,0,0,0,0,75,1,3,0,1,1,0,5.6,0,0,0,0,1.38629,-0.295086,3650,1,51.51
'University of Zielona Gora',1,1,20,0,0,0,0,0,0,0,1,1,6,0,0,1,0,0,1,1,1,1,1,0,0,1,0,0,1,1,0,1,1,0,1,0,0,0,1,0,0,0,1,1,0,1,0,21,0,1,1,0,0,0,0,75,1,0,1,0,1,0,60.6,0,1,1,0,0,-0.435377,3650,1,51.3
'Wuhan University of Technology',1,1,11,1,0,0,0,0,0,0,1,1,10,0,0,1,0,1,1,0,1,0,0,0,0,1,0,1,1,1,1,1,0,0,1,0,0,0,1,0,0,0,1,0,1,0,1,10.7,0,1,0,0,0,0,0,75,0,2,0,1,0,0,15.2,0,1,0,0,1.09861,-0.165858,3650,1,51.24
'Pontifical Catholic University of Rio Grande do Sul',1,1,6,0,1,0,0,1,0,0,1,0,0,0,1,1,0,0,1,0,0,0,1,1,0,1,0,1,1,0,0,1,1,1,1,0,1,0,1,0,0,0,1,0,1,1,1,5.74,0,1,1,0,0,0,0,90,1,25,1,1,1,1,25,0,1,0,0,3.2581,-0.895304,265,0,51.15
'Yamaguchi University',1,1,2,1,1,0,0,0,0,0,0,0,0,0,1,1,0,1,0,14,1,1,1,0,1,1,0,1,1,0,1,1,0,0,0,0,1,0,1,0,0,0,0,1,1,1,1,21,0,1,0,0,0,0,0,90,1,2,0,1,0,0,26.9,0,1,1,0,1.09861,0.086579,13,0,51.11
'Jamia Hamdard',1,1,3,0,0,0,0,0,1,1,0,0,0,1,0,1,0,1,1,1,0,0,0,0,0,1,0,1,1,0,0,1,1,1,0,1,1,0,1,0,0,0,0,1,1,1,0,12.63,0,1,1,0,0,0,0,75,1,5,1,0,0,0,7.7,0,1,0,0,1.79176,4.4101,3650,1,50.2
'University of Ferrara',1,1,5,1,0,1,0,0,0,0,0,0,0,0,1,1,0,1,0,0,0,0,0,1,0,1,0,0,1,0,0,0,1,0,1,0,0,0,1,0,0,0,0,0,1,1,0,16.88,0,1,1,0,0,0,0,75,1,1,1,0,1,1,50,0,1,1,0,0.693147,-0.601795,343,0,50.04
'Federal University of Pelotas',0,1,7,1,1,0,0,0,0,0,1,1,5,0,0,1,0,0,0,6,1,1,0,0,0,1,0,1,0,1,1,1,1,0,0,1,0,0,0,0,0,0,0,0,1,1,0,18.1,0,1,0,0,0,0,0,20,1,2,1,0,1,0,12.5,0,0,0,0,1.09861,-0.170513,3650,1,49.77
'Johannes Gutenberg University Mainz',1,1,5,1,1,0,0,0,0,0,1,0,1,1,0,0,0,0,0,0,0,0,0,0,0,1,0,1,0,1,0,1,1,0,0,0,0,0,1,0,0,0,1,0,1,1,1,12.48,0,1,1,0,0,0,0,75,1,0,1,0,0,1,33.3,0,1,1,0,0,0.831612,3650,1,49.72
'University of Costa Rica',1,1,5,1,0,0,0,0,1,4,1,1,2,0,1,1,1,0,0,14,1,1,1,1,1,1,0,0,0,0,0,1,0,0,0,1,0,1,1,0,0,0,0,0,1,1,1,21,0,1,0,0,0,0,0,90,1,0,1,1,1,1,82.9,0,1,0,0,0,-0.592233,11,0,49.21
'L.N. Gumilyov Eurasian National University',1,1,6,0,1,0,1,1,0,0,0,1,10,1,1,1,0,1,1,0,1,1,1,0,1,1,0,1,1,1,0,0,0,0,0,0,1,0,1,0,0,0,1,0,1,1,1,21,0,1,1,0,0,0,0,75,1,0,1,1,0,1,30.8,0,0,1,0,0,0.437548,1,0,48.94
'Federal University of Rio de Janeiro',1,1,4,1,1,0,1,1,1,1,0,0,0,0,0,0,1,0,0,0,0,0,0,0,0,1,0,0,1,1,0,1,1,0,0,0,0,0,1,0,0,0,1,0,1,0,0,19.89,0,1,1,0,0,0,0,75,1,0,1,0,1,1,85.7,0,1,0,0,0,-0.742296,3650,1,48.64
'Waseda University',1,1,11,1,1,0,0,0,0,0,0,0,0,0,1,1,0,1,1,1,1,1,1,0,1,1,1,1,1,0,1,1,0,0,0,0,1,0,0,0,0,0,0,0,1,1,1,12.63,0,1,1,0,0,0,0,90,1,0,1,1,1,0,29.5,0,1,0,0,0,0.103234,8,0,48.49
'University of Maine',1,1,7,0,0,0,0,0,1,1,0,0,0,0,0,1,0,0,0,0,1,1,0,0,1,1,0,0,1,0,1,1,1,1,0,1,1,1,0,0,0,0,0,0,1,1,0,15.13,0,1,1,0,0,0,0,90,1,0,1,0,0,1,83.3,0,1,1,0,0,0.0776489,3650,1,48.06
'South Valley University',1,1,8,0,1,0,0,0,1,1,0,0,0,1,1,1,0,1,0,0,0,0,0,1,0,1,0,1,1,1,1,0,1,0,0,0,0,0,0,0,0,0,0,0,1,0,0,13.3,0,1,0,0,0,0,0,35,0,4,0,0,1,0,18.8,0,0,0,0,1.60944,1.65423,65,0,47.76
'University of Antofagasta',1,1,9,1,1,0,0,1,0,0,0,1,2,0,0,0,0,0,0,0,1,1,0,0,0,1,0,0,1,1,1,1,1,0,0,0,1,0,0,0,0,0,0,0,0,0,0,11.98,0,1,1,0,0,0,0,100,1,1,1,0,1,1,7.4,0,1,1,0,0.693147,-0.224508,3650,1,47.7
'University of Burgos',1,1,8,0,1,1,0,0,0,0,0,0,0,0,0,0,1,0,0,1,1,1,0,0,1,1,0,0,1,0,1,1,1,0,0,0,1,0,1,1,0,0,1,0,0,1,1,14.07,0,1,1,0,0,0,0,75,1,0,1,0,1,0,100,0,1,0,0,0,-0.815504,3650,1,47.54
'Industrial University of Santander',0,1,9,0,1,0,0,0,0,0,0,0,0,0,0,1,0,1,0,3,0,0,0,0,0,1,0,1,1,0,1,1,1,0,0,0,1,0,0,0,0,0,0,0,0,1,0,12.63,0,1,0,0,0,0,0,90,1,0,1,0,1,1,84.2,0,1,0,0,0,-0.673716,3650,1,47.48
'Polytechnic University of Madrid',1,1,3,0,0,0,1,1,0,0,0,0,0,0,0,1,0,1,1,0,0,0,0,0,0,1,0,1,0,0,1,1,1,0,0,0,0,1,0,0,0,0,0,0,1,1,1,21,0,1,1,0,0,0,0,75,1,0,1,0,1,0,95.5,0,1,1,0,0,-0.361394,3650,1,46.8
'University of Puerto Rico',1,1,4,1,1,0,0,0,0,0,0,0,0,0,1,0,0,0,0,2,1,1,0,0,1,1,0,0,0,1,0,0,0,1,0,0,0,1,1,0,0,0,0,0,0,1,0,9.1,0,1,0,0,0,0,0,90,1,1,1,1,0,1,81.5,0,1,0,0,0.693147,-0.287899,4,0,46.65
'University of Salerno',1,1,20,1,1,1,0,0,1,0,0,0,0,0,0,1,0,0,0,2,1,1,0,0,0,1,0,1,1,0,0,1,1,0,0,0,0,1,1,1,0,0,1,1,0,1,1,1.01,0,1,1,0,0,0,0,75,1,0,1,0,1,0,100,0,1,1,0,0,0.512432,3650,1,46.37
'University of Udine',1,1,6,1,1,1,0,1,0,0,0,0,0,0,0,0,0,0,0,0,0,1,0,0,0,1,0,0,0,0,1,1,1,1,0,0,0,0,0,0,0,0,0,0,0,1,0,15.43,0,1,1,0,0,0,0,90,1,0,1,1,0,1,100,0,1,0,0,0,0.265761,3650,1,46.29
'Kagoshima University',1,1,6,0,0,0,0,0,0,0,0,1,10,1,0,1,0,1,0,0,0,0,0,0,0,1,0,1,1,1,0,1,0,0,0,0,1,1,1,0,0,0,0,0,1,1,1,12.63,0,1,1,0,0,0,0,75,1,0,1,0,0,0,100,0,1,0,0,0,-0.58284,3650,1,45.94
'University of Cagliari',1,1,4,0,1,0,0,0,0,0,0,1,5,0,1,1,0,1,0,5,1,1,0,0,0,1,0,1,0,0,1,1,0,0,0,1,1,1,0,0,0,0,1,0,0,1,1,1.3,0,1,1,0,0,0,0,75,1,0,1,0,1,0,100,0,1,0,0,0,0.809798,0,0,45.24
'University of Brasilia',1,1,7,1,0,1,0,0,0,0,0,0,0,0,0,0,0,0,0,0,1,0,0,0,0,1,0,1,0,1,0,1,1,0,0,0,0,0,0,0,0,0,1,0,1,0,1,11.66,0,1,1,0,0,0,0,75,1,1,1,0,1,0,83.3,0,1,0,0,0.693147,-0.0354564,3650,1,45.13
'University of the Balearic Islands',0,1,0,1,1,0,0,1,0,0,1,0,0,1,0,0,0,0,0,0,0,0,0,0,1,1,0,1,1,0,0,1,1,0,1,0,0,1,1,1,0,0,1,1,1,1,0,16.1,0,0,0,0,0,0,0,75,1,0,1,1,1,0,33.3,0,1,1,0,0,0.157384,3650,1,45.12
'Josip Juraj Strossmayer University of Osijek',1,1,5,1,1,0,0,0,0,0,0,0,0,0,0,1,0,0,0,1,1,1,0,0,0,1,0,1,1,0,1,0,1,0,0,0,0,0,1,1,0,0,1,0,1,1,0,3.61,0,1,1,0,0,0,0,90,1,0,1,0,1,0,72.7,0,1,1,0,0,0.11475,3650,1,45.05
'Beijing Forestry University',1,0,0,1,0,0,0,0,0,0,0,1,10,0,1,1,0,1,1,13,1,1,0,1,1,1,0,1,1,1,1,1,1,0,0,0,1,0,1,0,1,0,0,0,1,0,0,12.63,0,1,0,0,0,0,0,75,0,0,1,0,1,0,1.7,0,0,0,0,0,-0.432141,0,0,45
'Saitama University',1,0,0,1,0,0,0,0,1,1,1,0,0,1,0,1,1,1,1,0,0,0,0,0,0,1,0,1,1,1,1,1,1,1,0,0,1,0,1,0,0,0,0,0,1,0,0,19.06,0,1,0,0,0,0,0,90,1,0,1,1,1,1,4.3,0,0,1,0,0,-1.4461,3650,1,45
KAIST,0,0,0,1,0,0,0,0,1,0,0,1,6,1,0,1,1,1,1,0,0,0,0,0,1,1,0,1,1,1,1,1,1,1,1,1,1,0,1,1,1,0,0,0,1,1,0,9,0,1,0,0,0,0,0,55,1,0,0,1,1,1,100,0,1,0,0,0,1.42221,3650,1,45
'Duy Tan University',1,0,0,1,0,0,1,1,1,2,1,0,0,0,1,1,0,1,0,0,1,1,1,1,0,1,0,1,1,0,1,1,1,0,0,0,1,1,1,0,0,0,0,1,1,1,0,15.43,0,1,0,0,0,0,0,100,1,0,1,0,1,1,92.5,0,0,0,0,0,-0.636217,4,0,45
'Southwest Jiaotong University',1,0,0,0,0,0,0,1,0,0,1,0,0,0,0,1,0,1,1,0,0,0,0,1,1,1,0,1,1,1,1,1,1,1,1,0,1,1,0,0,0,0,0,0,1,0,0,21,0,1,0,0,0,0,0,20,1,0,0,1,0,0,0,0,0,0,0,0,0.292462,3650,1,45
'Universiti Brunei Darussalam',1,0,0,1,0,0,0,1,0,0,0,0,0,0,1,1,1,1,1,0,0,0,0,0,1,1,0,1,1,1,1,1,1,1,1,1,1,1,1,1,0,1,1,0,1,1,1,5.33,0,1,1,0,0,0,0,90,1,2,1,1,1,0,21.1,0,1,0,0,1.09861,1.12984,8,0,45
'Central China Normal University',1,0,0,0,0,0,0,0,0,0,0,0,0,0,0,1,0,1,0,0,0,0,0,0,1,1,0,1,1,1,0,1,1,1,1,0,1,0,1,0,0,1,0,0,1,0,0,12.63,0,1,0,0,0,0,0,75,0,0,1,0,0,0,0,0,1,0,0,0,0.117481,3650,1,45
'Huazhong University of Science and Technology',1,0,0,1,0,0,0,0,1,1,1,1,3,1,1,1,1,1,1,2,1,1,0,1,0,1,0,1,1,1,1,1,1,1,1,0,1,1,1,0,0,1,0,0,1,1,0,12.63,0,1,0,0,0,0,0,75,0,2,1,0,0,0,1.2,0,0,0,0,1.09861,-0.10004,19,0,45
'University of Oviedo',1,0,0,1,1,0,0,1,0,0,0,0,0,0,1,1,1,0,0,0,1,1,1,0,1,1,0,1,1,1,1,1,1,0,0,0,0,0,1,1,0,0,0,0,1,1,0,21,0,1,1,0,0,0,0,75,1,0,0,1,1,0,100,0,1,0,0,0,-0.072985,6,0,45
'University of Agriculture Faisalabad',1,0,0,1,0,0,0,0,1,1,1,0,0,1,1,1,0,1,1,0,0,0,1,1,0,1,0,1,1,1,1,1,1,1,1,1,1,0,0,1,0,0,1,0,1,1,1,4.87,0,1,1,0,0,0,0,75,1,1,1,0,1,0,12.5,0,1,0,0,0.693147,-0.762853,3,0,45
'GIK Institute of Engineering Sciences and Technology',1,0,0,1,0,0,0,0,1,1,1,0,0,1,1,1,1,1,1,1,0,0,0,1,0,1,0,1,1,1,1,1,1,1,1,1,1,1,1,0,0,1,0,0,1,1,1,8.32,0,1,1,0,0,0,0,90,1,2,1,1,1,0,3.4,0,1,0,0,1.09861,0.442436,12,0,45
'Bahria University',1,0,0,0,0,0,0,1,0,0,0,1,4,1,0,1,1,1,1,4,1,1,1,1,1,1,0,1,1,0,1,1,1,1,1,1,1,1,1,1,0,0,0,0,1,1,0,15.43,0,1,0,0,0,0,0,75,1,0,1,0,0,0,65.5,0,1,1,0,0,-0.934106,3650,1,45
'University of Management and Technology',1,0,0,1,0,0,0,1,1,1,1,1,2,1,0,1,0,1,1,7,1,1,0,0,0,1,0,1,1,1,1,1,1,1,0,1,1,0,1,0,1,1,0,0,1,1,1,1.49,0,1,0,1,0,0,1,75,1,0,1,0,1,0,7.4,0,1,1,0,0,-0.792997,3650,1,45
'University of Engineering and Technology Taxila',1,0,0,0,0,0,0,0,1,0,0,0,0,1,0,1,1,1,1,0,0,0,1,1,1,1,0,1,1,1,1,1,1,1,1,0,1,1,1,1,1,1,0,0,1,1,0,4.81,0,1,1,0,0,0,0,75,1,2,1,0,0,1,90.8,0,1,0,0,1.09861,0.335708,3650,1,45
'Tezpur University',1,0,0,1,0,0,0,0,1,1,1,0,0,1,1,1,1,1,0,0,1,0,1,1,0,1,0,1,1,1,1,1,1,1,1,1,1,0,1,1,1,0,0,1,1,1,0,16.97,0,1,0,0,0,0,0,20,1,3,0,1,1,1,48.9,0,0,1,0,1.38629,-0.699305,0,0,45
'All India Institute of Medical Sciences Delhi',1,0,0,1,0,0,0,0,1,1,1,0,0,1,1,1,0,1,1,0,0,0,1,0,1,1,0,1,1,1,1,1,1,0,1,0,1,1,1,1,0,0,0,0,1,1,0,10.86,0,1,1,0,0,0,0,20,1,0,1,0,0,0,22,0,0,1,0,0,-0.468904,314,0,45
'University of Calicut',0,0,0,1,0,0,0,1,1,1,1,0,0,1,1,1,0,1,1,0,0,0,0,1,0,1,0,1,1,1,1,1,1,1,1,1,1,1,1,0,0,1,0,0,1,1,0,12.63,0,1,0,0,0,0,0,75,1,0,1,1,1,0,73.2,0,1,0,0,0,-0.643253,0,0,45
'Nelson Mandela University',1,0,0,1,0,0,0,0,0,0,0,0,0,0,1,1,1,1,1,0,1,1,0,0,0,1,0,1,1,1,1,1,1,1,1,1,1,1,1,1,1,0,0,0,1,1,0,15.43,0,1,0,0,0,0,1,75,1,0,1,1,1,0,0,0,0,0,0,0,1.2419,0,0,45
'Mansoura University',1,0,0,1,1,0,0,1,1,1,1,0,0,0,1,1,1,1,1,0,0,0,0,1,1,1,0,1,1,1,1,1,1,0,1,0,1,0,1,0,0,0,0,1,0,1,1,12.63,0,1,1,0,0,0,0,75,1,0,1,1,1,1,50.6,0,1,1,0,0,-0.616636,5,0,45
'University of Silesia in Katowice',1,0,0,1,1,0,0,1,0,0,1,0,0,1,1,1,0,1,1,0,0,0,0,1,0,1,0,1,1,1,1,1,1,0,1,0,0,0,1,0,0,0,1,1,1,1,1,13.65,0,1,1,0,0,0,0,90,1,0,1,1,1,0,100,0,1,1,0,0,1.29436,71,0,45
'Silesian University of Technology',1,0,0,1,1,0,0,1,1,0,1,1,10,1,1,1,0,1,1,20,1,1,1,1,0,1,0,1,1,1,1,1,1,1,0,0,0,1,1,0,0,0,1,0,1,1,1,15.43,0,1,1,0,0,0,0,90,1,0,1,1,1,0,60.1,0,1,1,0,0,-0.217906,1,0,45
'Vrije Universiteit Amsterdam',1,0,0,0,1,0,0,1,0,0,1,0,0,0,1,1,1,1,1,0,1,1,0,0,0,1,0,1,1,1,1,1,1,0,1,1,1,1,1,1,1,0,0,0,1,0,0,11.04,0,1,0,0,0,0,0,75,1,0,0,1,1,0,0,0,1,1,0,0,0.892235,0,0,45
'Osmania University',1,0,0,1,0,0,0,1,1,2,1,1,10,1,1,1,1,1,1,9,1,1,1,0,1,1,0,1,1,1,1,1,1,1,1,1,1,1,1,1,1,0,0,0,1,1,1,9.74,0,1,1,1,0,0,0,75,1,0,0,0,0,0,20,0,1,1,0,0,0.4659,0,0,45
'O.P. Jindal Global University',1,0,0,1,0,0,0,1,1,1,1,1,10,0,0,1,1,1,1,0,1,1,0,0,1,1,0,1,1,1,1,1,1,1,1,1,1,0,1,0,0,0,1,0,1,1,1,12.63,0,1,1,1,0,0,0,75,1,0,1,1,1,1,98.2,0,1,0,0,0,0.0508841,3650,1,45
'Amrita Vishwa Vidyapeetham',1,0,0,1,0,0,0,1,1,3,1,1,10,0,1,1,1,1,1,14,1,1,0,1,1,1,0,1,1,1,1,1,1,1,0,1,1,1,1,0,0,0,0,0,1,1,1,21,0,1,1,0,0,0,0,75,1,0,1,1,1,1,96,0,1,1,0,0,0.127141,0,0,45
'University of Calcutta',1,0,0,0,0,0,0,1,1,1,1,1,6,1,0,1,1,1,1,1,1,1,1,1,0,1,0,1,1,1,1,1,1,1,1,0,0,0,1,0,0,0,1,0,1,1,1,19.11,0,1,1,0,0,0,0,75,1,1,0,0,1,0,1.2,0,1,0,0,0.693147,-0.717392,3650,1,45
'Universitas Negeri Yogyakarta',1,0,0,1,0,0,0,0,1,1,1,1,4,0,1,1,0,1,1,2,1,1,0,0,1,1,0,1,1,1,1,1,1,0,0,0,0,0,0,0,0,0,0,0,1,1,0,4.54,0,1,1,0,0,0,0,75,1,0,1,0,1,1,60,0,1,0,0,0,0.416874,8,0,45
'Indian Institute of Technology Roorkee',1,0,0,0,0,0,0,1,0,0,1,1,8,1,1,1,1,1,1,0,1,0,1,1,1,1,0,1,1,1,1,1,1,1,1,1,1,1,1,1,0,0,0,1,1,1,0,21,0,1,0,0,0,1,0,75,1,0,1,1,0,0,65.3,0,0,1,0,0,0.0991153,42,0,45
'Savitribai Phule Pune University',1,0,0,1,0,0,0,1,0,0,1,0,1,1,0,1,1,1,1,0,0,0,1,0,0,1,0,1,1,1,1,1,0,1,1,0,1,1,1,1,0,0,0,1,1,0,0,1.38,0,0,0,0,0,0,0,0,1,2,1,1,1,1,63.6,0,1,0,0,1.09861,-0.820372,3650,1,45
'Multimedia University',1,0,0,1,0,0,0,0,1,0,1,0,0,1,0,1,1,1,1,0,0,0,0,1,0,1,0,1,1,1,1,1,1,1,1,0,1,0,1,0,0,1,1,1,1,1,1,12.63,0,1,1,1,0,1,0,90,1,0,1,1,1,1,40.8,0,1,0,0,0,-0.50739,3650,1,45
'Universiti Teknologi MARA',1,0,0,1,1,0,1,1,1,1,1,1,7,0,1,1,1,1,0,0,1,1,0,1,0,1,0,1,1,1,1,1,1,0,1,1,1,1,1,0,0,1,1,1,1,1,1,2.85,0,1,1,0,0,0,0,90,1,1,0,1,1,0,93.8,0,1,1,0,0.693147,-0.297494,0,0,45
'University of the Free State',1,0,0,1,0,0,0,0,0,0,0,0,0,1,0,1,1,1,0,0,1,0,0,0,0,1,0,0,1,1,1,1,1,1,1,1,1,0,1,0,0,0,0,0,1,1,1,12.63,0,1,0,0,0,0,0,75,1,0,0,1,1,0,66.7,0,1,0,0,0,0.820465,3650,1,45
'Rhodes University',1,0,0,1,0,0,0,0,0,0,0,0,0,0,0,1,1,1,0,0,0,0,0,0,0,1,0,1,1,1,1,1,1,1,1,1,1,1,0,1,0,0,1,0,1,1,1,5.33,0,0,1,0,0,0,0,75,1,2,1,1,0,1,50,0,1,0,0,1.09861,-0.691948,3650,1,45
'Nankai University',1,0,0,1,1,0,0,0,0,0,1,1,10,0,1,1,0,1,1,3,1,0,0,1,1,1,0,1,1,1,1,1,1,1,1,1,1,0,1,0,0,0,0,0,1,1,0,21,0,1,0,0,0,0,0,75,1,2,1,0,0,0,0,0,0,0,0,1.09861,-0.141979,35,0,45
'Tianjin University',1,0,0,1,1,0,0,0,1,1,1,1,10,1,1,1,1,1,1,0,0,0,0,1,1,1,0,1,1,1,1,1,1,1,1,1,1,1,1,0,0,0,0,0,1,1,0,21,0,1,0,0,0,0,0,75,0,2,1,1,0,0,0.6,0,1,0,0,1.09861,0.00751692,1,0,45
'University of the East',1,0,0,1,0,0,0,1,1,1,1,1,2,1,1,1,1,1,0,0,0,0,0,1,1,1,0,1,1,1,1,1,1,1,1,1,1,0,1,0,1,1,1,0,1,1,1,13.2,0,1,1,1,0,1,0,75,1,0,0,1,1,1,1.1,0,1,0,0,0,1.88193,19,0,45
'Tsinghua University',1,0,0,1,0,0,0,0,0,0,0,1,3,0,0,1,1,1,1,1,1,1,0,0,1,1,0,1,1,1,1,1,1,0,0,0,1,0,1,0,0,0,0,0,1,1,0,21,0,1,0,0,0,0,1,75,1,0,1,0,0,0,0,0,0,0,0,0,0.141762,3650,1,45
'University of L\'Aquila',1,0,0,1,0,0,0,1,1,0,1,1,8,1,0,1,1,1,1,0,0,0,0,1,0,1,0,0,1,1,1,1,1,1,1,0,1,1,1,1,0,0,0,1,1,1,0,19.65,0,1,0,0,0,0,0,75,1,0,1,0,0,0,100,0,1,1,0,0,0.326668,3650,1,45
'Peking University',0,0,0,1,0,0,0,0,1,1,1,0,1,0,1,1,0,1,1,0,0,0,0,0,0,1,0,1,1,1,1,1,1,0,1,1,1,0,1,0,0,0,0,0,1,1,0,12.63,0,1,0,0,0,0,0,75,1,0,1,1,1,0,0,0,0,0,0,0,-0.00271701,15,0,45
'Shanghai Jiao Tong University',1,0,0,1,1,0,0,1,0,0,1,1,10,1,1,1,0,1,1,2,1,0,0,1,1,1,0,1,1,1,1,1,1,1,0,1,1,1,1,0,0,0,1,0,1,1,1,17.4,0,1,1,0,0,0,0,75,1,0,1,0,1,1,0,0,1,1,0,0,2.15203,6,0,45
'Zhejiang University',1,0,0,0,0,0,0,0,0,0,1,1,10,0,1,1,1,1,1,3,1,0,0,1,0,1,0,1,1,1,1,1,1,0,0,0,1,0,1,0,0,0,0,0,1,1,1,10.16,0,1,1,0,0,0,0,75,1,0,1,0,0,0,20,0,1,0,0,0,-0.346657,18,0,45
'Pennsylvania State University',1,0,0,0,0,0,1,1,0,0,1,0,0,0,0,1,1,1,0,0,0,0,0,0,1,0,0,1,1,1,1,1,1,1,1,1,1,1,1,0,0,1,0,0,1,1,0,21,0,0,0,0,0,0,0,90,1,1,1,1,1,1,90,0,1,1,0,0.693147,-0.390333,3650,1,45
'Maldives National University',1,0,0,1,0,0,0,0,1,1,1,0,1,1,1,1,1,1,1,0,0,0,1,1,0,1,0,1,1,1,1,1,1,1,1,1,1,1,1,0,0,1,1,0,1,1,1,7.19,0,1,1,1,0,0,0,75,1,1,1,0,1,1,0,0,1,0,0,0.693147,2.39205,0,0,45
'University of Szeged',1,0,0,1,0,0,0,1,1,0,1,1,6,0,1,1,1,1,0,0,1,1,0,0,0,1,0,1,1,1,1,1,1,1,1,0,1,1,1,0,1,0,0,0,1,1,0,14.31,0,1,0,0,0,1,0,75,1,0,1,1,1,0,100,0,1,1,0,0,1.33144,40,0,45
'Meiji University',1,0,0,1,0,0,0,0,1,1,1,1,2,0,1,1,1,1,1,1,1,1,0,0,0,1,0,1,1,1,1,1,1,1,0,1,1,0,1,0,0,0,0,1,1,1,0,21,0,1,1,0,0,0,0,75,1,0,0,1,1,0,11.8,0,1,0,0,0,-0.107063,4,0,45
'Sun Yat-sen University',1,0,0,1,0,0,0,1,0,0,1,1,10,0,1,1,0,1,0,0,0,0,0,1,1,1,0,1,1,1,1,1,1,1,1,1,1,1,0,0,0,0,1,0,1,1,1,12.63,0,1,1,0,0,0,0,75,1,1,1,0,1,0,0,0,1,0,0,0.693147,0.700013,4,0,45
'Wuhan University',1,0,0,1,0,0,0,0,0,0,0,1,4,1,1,1,0,1,1,6,1,1,0,1,0,1,0,1,1,1,1,1,0,0,1,0,1,1,1,0,0,0,0,0,1,1,1,15.43,0,1,1,0,0,0,0,75,1,0,1,0,0,0,5.1,0,1,0,0,0,0.555333,4,0,45
'University of Nigeria Nsukka',1,0,0,1,0,1,0,0,1,1,1,1,10,1,1,1,1,1,1,5,1,1,0,1,0,1,0,1,1,1,1,1,1,1,1,1,1,1,1,0,0,0,0,1,1,1,0,8.86,0,1,0,0,0,0,0,90,1,0,1,1,1,1,54.7,0,1,0,0,0,-1.1117,0,0,45
'Covenant University',1,0,0,0,0,0,0,1,1,1,0,1,9,1,1,1,0,1,1,0,1,0,0,0,1,1,0,1,1,1,1,1,1,1,1,1,1,1,1,1,0,0,0,0,1,1,0,19.95,0,1,1,0,0,0,0,90,1,0,1,1,1,1,71.8,0,1,0,0,0,-0.347784,29,0,45
'Sungkyunkwan University',1,0,0,1,0,0,1,1,0,0,1,1,10,1,0,1,1,1,1,0,1,1,0,1,0,1,0,1,1,1,1,1,1,1,1,0,1,0,1,1,1,0,0,0,1,1,0,12.63,0,1,0,0,0,0,1,75,1,0,1,1,1,1,88.7,0,1,0,0,0,1.30883,3650,1,45
'Macquarie University',0,0,0,0,0,0,0,0,0,0,0,0,0,0,0,1,0,1,1,0,0,0,0,0,0,1,0,0,1,0,1,1,1,1,1,0,1,0,1,0,0,1,0,0,0,0,0,11.53,0,1,0,0,0,0,0,75,1,0,1,1,1,1,60,0,1,0,0,0,0.221322,3650,1,45
'Shandong University',1,0,0,1,0,0,0,0,0,0,1,1,8,0,1,1,0,1,1,0,0,0,0,0,0,1,0,1,1,1,1,1,1,0,1,0,1,0,1,1,0,0,0,0,1,0,0,21,0,1,0,0,0,0,0,75,1,0,1,0,0,0,0,0,0,0,0,0,0.100224,7,0,45
'Central South University',1,0,0,1,0,0,0,0,0,0,1,1,3,1,1,1,0,1,1,1,1,1,0,1,0,1,0,1,1,1,1,1,1,1,1,0,1,0,1,1,0,0,0,0,1,1,0,21,0,1,0,0,0,0,0,0,1,0,1,0,0,0,2.4,0,0,0,0,0,-0.0408434,291,0,45
'Xiamen University',1,0,0,1,0,0,0,0,0,0,1,1,4,0,1,1,0,1,1,2,1,1,0,0,1,1,0,1,1,1,1,1,1,1,1,0,0,0,0,0,0,0,0,0,1,1,0,21,0,1,0,0,0,0,0,75,1,0,1,0,0,0,0,0,0,0,0,0,0.631385,4,0,45
'Southeast University',1,0,0,1,0,0,0,0,0,0,1,1,6,0,1,1,0,1,1,0,1,0,0,1,1,1,0,1,1,1,1,1,1,1,1,0,1,0,1,0,0,0,0,0,1,1,0,15.72,0,1,0,0,0,1,0,75,1,0,1,1,1,0,0,0,0,0,0,0,-0.146995,4,0,45
'Case Western Reserve University',1,0,0,0,0,0,0,1,0,0,1,1,10,1,0,1,0,1,1,7,0,0,0,0,1,1,0,0,1,1,1,1,1,1,1,1,1,0,1,1,0,0,1,0,1,1,1,21,0,1,1,0,0,0,0,100,1,0,0,1,1,1,59.4,0,1,0,0,0,0.44495,3650,1,45
'Kenyatta University',1,0,0,1,0,0,0,1,1,0,0,0,0,1,1,1,0,1,1,1,0,0,0,0,1,1,0,1,1,1,1,1,1,0,1,1,1,0,1,1,0,0,1,0,1,1,1,5.33,0,1,1,0,0,0,0,90,1,0,0,1,1,1,18.8,0,1,0,0,0,1.62281,6,0,45
'University of Birmingham',1,0,0,1,0,0,0,0,0,0,0,0,1,0,1,1,0,0,1,0,1,1,0,0,0,1,0,0,1,1,1,1,1,0,0,1,1,0,1,1,0,0,1,0,1,1,1,21,0,1,1,0,0,0,1,90,1,0,1,1,1,0,38.1,0,1,1,0,0,-1.38816,1,0,45
'Yunnan University',1,0,0,1,0,0,0,0,0,0,0,0,0,0,1,1,0,1,1,0,1,1,0,1,0,1,0,1,1,1,1,1,1,1,0,1,1,0,1,0,0,0,0,0,1,0,0,21,0,1,0,0,0,0,0,75,0,0,1,1,0,0,77.3,0,0,0,0,0,1.00021,11,0,45
'University of Peradeniya',1,0,0,0,1,0,0,1,1,1,1,1,10,1,1,1,0,1,1,2,0,0,0,1,1,1,0,1,1,0,1,1,1,1,1,1,1,1,1,1,0,0,1,0,1,1,1,21,0,0,0,0,0,0,0,75,1,0,1,0,1,1,97.1,0,1,0,0,0,3.84468,5,0,45
'Hellenic Mediterranean University',1,0,0,1,1,0,0,0,0,0,0,1,8,1,1,1,1,1,1,3,1,1,1,0,1,1,0,1,1,1,1,1,1,0,1,1,1,1,1,1,0,0,1,0,1,1,1,5.74,0,1,1,0,0,1,0,90,1,0,1,1,1,0,51.9,0,1,1,0,0,1.14514,26,0,45
'Beijing Jiaotong University',1,0,0,0,0,0,0,0,0,0,1,0,1,0,0,1,0,1,1,0,1,1,0,0,0,1,0,1,1,1,1,1,1,0,1,1,1,0,1,0,1,0,0,0,1,0,0,12.82,0,1,0,0,0,0,0,75,0,1,0,0,1,0,0,0,0,0,0,0.693147,-0.229268,3650,1,45
'University of Guanajuato',1,0,0,1,0,0,0,0,1,1,0,0,0,0,0,0,1,1,0,0,0,0,0,0,0,0,0,1,0,1,1,1,1,1,1,0,0,0,0,0,0,0,0,0,0,1,0,12.63,0,0,0,0,0,0,0,75,1,2,0,1,1,1,90,0,1,0,0,1.09861,1.0241,3650,1,45
'Ocean University of China',1,0,0,0,0,0,0,1,0,0,1,1,10,1,1,1,0,1,1,0,1,0,0,0,1,1,0,1,1,1,1,1,1,0,1,0,1,0,1,0,0,0,0,0,1,0,0,21,0,1,0,0,0,0,0,75,0,2,1,1,1,0,0,0,0,0,0,1.09861,0.147381,82,0,45
'University of Calgary',1,0,0,1,0,0,0,1,0,0,0,1,10,0,1,1,1,1,1,20,1,1,0,0,1,1,0,1,1,1,1,1,1,1,1,1,1,1,1,1,0,1,0,0,1,1,1,10.86,0,1,1,0,0,0,1,100,1,0,1,1,1,1,72.7,0,1,0,0,0,0.256638,0,0,45
'Swinburne University of Technology',1,0,0,1,0,0,0,1,1,1,1,0,0,0,1,1,0,1,1,0,1,1,0,0,0,1,0,1,1,1,1,1,1,1,1,1,1,1,1,1,0,1,0,0,1,1,1,11.98,0,1,1,1,0,1,1,100,1,0,1,1,0,1,65.2,0,1,1,0,0,-0.150676,95,0,45
'Griffith University',0,0,0,1,0,1,1,1,0,0,1,1,3,0,1,1,0,0,1,2,1,1,0,1,0,1,0,0,1,1,1,1,1,1,1,0,1,1,1,0,0,0,0,0,1,1,1,21,0,1,0,0,0,0,0,75,1,0,1,1,1,1,0,0,1,0,0,0,0.298069,0,0,45
'University of Louisville',1,0,0,1,0,0,0,0,1,1,0,1,5,0,1,1,1,1,1,13,1,1,0,0,0,1,0,1,1,1,1,1,1,1,1,1,1,1,1,0,0,1,1,0,1,1,1,12.63,0,1,1,0,0,0,0,100,1,0,1,0,1,1,76.9,0,1,1,0,0,0.859277,22,0,45
'Montana State University',1,0,0,1,0,1,0,0,0,0,1,0,0,0,0,1,1,1,1,1,1,1,0,1,0,1,0,1,1,1,1,1,1,1,1,1,1,1,1,0,0,0,0,0,0,1,1,12.63,0,1,1,0,0,0,0,75,1,0,1,1,1,1,92.1,0,1,1,0,0,-0.602055,3650,1,45
'Pontifical Catholic University of Chile',1,0,0,1,1,0,0,0,1,1,0,1,4,0,0,1,1,1,0,0,1,1,0,0,0,1,0,1,1,1,1,1,1,0,1,0,1,1,1,1,0,0,1,1,0,1,1,15.43,0,1,0,0,0,1,0,100,1,0,1,1,1,1,70.4,0,1,0,0,0,-0.145409,3650,1,45
'Colorado State University',1,0,0,1,0,0,0,0,0,0,1,1,3,0,0,1,1,1,1,10,1,1,0,1,1,1,0,1,1,1,1,1,1,1,1,1,1,0,1,0,0,0,0,0,1,1,1,21,0,1,0,0,0,0,0,90,1,0,1,1,1,1,89.7,0,1,1,0,0,-0.241797,3650,1,45
'Newcastle University',1,0,0,1,0,0,0,1,0,0,1,1,10,0,1,1,1,1,1,0,1,1,1,1,0,1,0,1,1,1,1,1,1,1,1,1,1,1,1,1,1,1,1,0,1,1,1,8.59,0,1,1,1,0,1,1,75,1,0,1,1,0,1,98.5,0,1,1,0,0,-0.0993138,1,0,45
'University of Bucharest',1,0,0,1,1,0,0,0,0,0,1,0,0,1,1,1,1,1,0,0,0,1,1,1,0,1,0,1,1,1,1,1,1,1,0,0,0,1,1,0,0,0,1,0,1,1,1,14.72,0,1,1,0,0,0,0,90,1,0,1,0,1,1,32.7,0,1,1,0,0,1.50001,0,0,45
'Jiangnan University',1,0,0,0,1,0,0,1,0,0,0,1,4,0,0,1,0,1,1,7,0,0,0,0,0,1,0,1,1,1,1,1,1,0,0,0,1,0,1,0,0,0,0,0,0,0,0,21,0,1,0,0,0,0,0,20,1,0,1,0,0,0,13.8,0,0,0,0,0,0.168852,3650,1,45
'Taras Shevchenko National University of Kyiv',1,0,0,0,0,0,0,0,1,1,1,1,5,0,1,1,1,1,0,0,1,1,1,1,0,1,0,1,1,1,1,1,1,0,1,1,0,0,0,0,0,0,0,0,1,1,0,18.59,0,1,0,0,0,0,0,0,1,0,1,0,1,1,50,0,0,0,0,0,0.0208823,1,0,45
'Technological University Dublin',1,0,0,1,1,0,0,0,0,0,1,1,10,1,1,1,1,1,1,0,1,0,0,0,0,1,0,1,1,1,1,1,1,1,1,1,1,1,1,0,0,0,0,1,1,1,0,15.91,0,1,0,1,0,0,0,90,1,0,1,1,1,1,96.8,0,1,1,0,0,-0.745554,1,0,45
'National and Kapodistrian University of Athens',1,0,0,1,0,0,0,1,0,0,0,1,5,1,1,1,1,1,1,12,1,1,1,0,0,1,0,1,1,1,1,1,1,0,1,0,0,0,1,1,0,0,0,1,1,1,1,12.63,0,1,1,0,0,0,0,75,1,0,1,0,1,1,37,0,1,0,0,0,-1.29684,1,0,45
'Jinan University',1,0,0,1,0,0,0,1,0,0,1,1,6,0,1,1,1,1,1,1,1,1,0,1,0,1,0,1,1,1,1,1,1,1,1,0,1,0,1,0,0,0,0,0,1,1,0,12.63,0,1,0,0,0,1,0,75,1,5,1,1,1,0,0,0,1,0,0,1.79176,-0.230071,243,0,45
'Carleton College',1,0,0,1,0,0,0,1,0,0,1,1,10,1,0,1,1,1,1,0,0,0,0,0,0,1,0,1,1,1,1,0,1,1,1,1,1,0,1,0,0,0,1,0,0,0,1,12.63,0,1,0,0,0,0,0,90,1,0,1,1,0,1,100,0,1,1,0,0,-1.13219,3650,1,45
'Graz University of Technology',1,0,0,0,1,0,0,0,0,0,0,0,0,1,0,1,0,0,1,0,1,1,0,0,1,1,0,1,0,1,1,1,1,1,1,1,1,0,1,1,0,0,0,0,0,0,0,21,0,1,0,0,0,0,0,75,1,0,1,1,0,0,100,0,1,1,0,0,1.28847,3650,1,45
'Pontifical Catholic University of Rio de Janeiro',1,0,0,1,0,0,0,1,0,0,0,0,0,0,0,0,0,0,0,0,0,0,0,0,1,1,0,1,1,1,1,1,1,0,1,0,1,0,1,0,0,0,1,0,1,1,1,19.2,0,1,1,0,0,0,0,75,1,4,1,1,1,0,100,0,1,0,0,1.60944,-0.124793,3650,1,45
'Harvey Mudd College',1,0,0,1,0,0,0,1,0,0,1,0,1,0,0,1,1,1,1,15,0,0,0,1,1,0,0,1,1,1,1,1,1,1,0,1,1,1,1,0,0,0,1,0,1,1,1,15.43,0,0,0,0,0,0,1,75,1,0,1,0,1,1,28.6,0,1,1,0,0,0.564897,3650,1,45
'Northwestern Polytechnical University',1,0,0,1,0,0,0,0,0,0,1,0,0,1,0,1,0,1,1,1,1,1,0,0,1,1,0,1,1,1,1,1,1,1,1,0,1,0,1,0,0,0,0,0,1,0,0,20.27,0,1,0,0,0,0,0,55,1,0,1,1,1,0,25,0,0,0,0,0,1.30823,3650,1,45
'East China Normal University',1,0,0,1,0,0,0,0,0,0,1,1,4,0,0,1,0,1,0,5,1,0,0,1,1,1,0,1,1,1,1,1,1,1,0,0,0,0,1,0,0,0,0,0,1,1,0,12.63,0,1,0,0,0,0,0,75,1,0,1,0,1,0,0,0,1,0,0,0,0.0659105,3650,1,45
'Hunan University',1,0,0,1,0,0,0,0,1,1,1,1,10,0,1,1,1,1,1,0,0,0,0,1,0,1,0,1,1,1,1,1,1,1,0,1,1,0,1,0,0,0,0,0,1,1,0,21,0,0,0,0,0,0,0,0,0,0,1,0,1,0,2.2,0,0,0,0,0,2.01357,0,0,45
'University of Dayton',0,0,0,1,0,0,0,1,0,0,0,1,5,0,0,1,1,1,1,0,1,0,0,0,1,1,0,1,1,1,1,0,1,0,1,1,1,1,1,0,0,0,1,0,0,1,1,19.63,0,1,0,0,0,0,0,75,1,0,1,1,1,1,94.7,0,1,0,0,0,0.114731,3650,1,45
'University of St. Gallen',0,0,0,1,1,1,0,1,1,2,1,1,10,0,1,1,1,1,1,14,1,1,1,1,1,1,0,1,1,1,1,1,1,0,1,1,1,1,1,1,1,0,1,0,1,1,1,21,0,1,0,0,0,0,0,100,1,0,1,1,1,1,44,0,1,0,0,0,0.783114,0,0,45
'Marquette University',1,0,0,1,0,0,0,1,0,0,1,1,10,0,0,1,0,1,0,0,1,1,0,1,0,1,0,1,1,1,1,1,1,1,1,1,1,1,1,0,0,0,1,0,1,1,1,15.43,0,1,1,0,0,0,0,75,1,0,1,1,0,1,87,0,1,1,0,0,1.41261,3650,1,45
'Delhi Technological University',1,0,0,1,0,0,0,0,1,1,1,0,0,1,1,1,1,1,1,0,0,0,1,1,0,1,0,1,1,1,1,1,1,1,1,1,1,1,1,0,1,0,0,0,1,1,0,4.67,0,1,0,0,0,1,0,0,1,4,1,1,1,0,53.8,0,0,0,0,1.60944,3.74953,0,0,45
'Indian Institute of Technology Jodhpur',1,0,0,0,0,0,0,1,0,0,1,1,5,1,1,1,0,1,1,7,1,1,1,0,0,1,0,1,1,1,1,1,1,1,1,0,1,1,1,1,0,0,0,1,1,1,0,15.43,0,1,1,0,0,0,0,75,1,0,1,1,1,1,95.7,0,1,0,0,0,0.526189,0,0,45
'IIIT Delhi',1,0,0,1,0,0,0,1,0,0,1,1,4,0,0,1,0,1,1,10,1,1,0,0,1,1,0,1,1,1,1,1,1,1,1,1,1,1,1,1,1,0,0,0,1,1,1,5.83,0,1,1,0,0,0,1,75,1,0,0,0,1,0,4.8,0,1,1,0,0,0.17521,3650,1,45
'University of Malawi',1,0,0,1,0,0,0,1,0,0,1,0,1,1,1,1,0,1,1,0,1,1,0,1,0,1,0,1,1,1,1,1,1,1,1,0,1,1,1,1,0,0,1,0,1,1,1,10.41,0,1,1,0,0,1,0,75,1,1,0,0,1,1,2.3,0,1,0,0,0.693147,-0.581714,1,0,45
'Universiti Teknologi PETRONAS',1,0,0,1,0,0,0,0,1,1,1,1,6,1,0,1,1,1,1,12,0,0,0,1,1,1,0,1,1,1,1,1,1,1,1,1,1,0,1,0,0,0,0,0,1,1,0,9.74,0,1,0,0,0,0,1,75,1,0,1,1,1,1,60,0,1,0,0,0,0.580617,3650,1,45
'University of Lome',1,0,0,1,1,0,0,0,0,0,0,0,1,0,1,1,0,1,1,6,0,0,0,1,0,1,1,1,1,1,0,1,1,1,0,1,1,1,1,1,0,0,0,0,1,1,1,5.33,0,1,1,0,0,0,0,90,1,2,1,0,1,0,10.5,0,1,0,0,1.09861,0.393275,784,0,45
'National Sun Yat-sen University',1,0,0,1,1,0,0,0,1,0,1,0,1,0,1,1,0,1,1,0,0,0,0,0,1,1,0,1,1,0,1,1,1,0,0,1,1,0,1,0,0,0,0,1,0,1,0,4.95,0,1,0,0,0,0,0,50,1,0,1,1,1,0,74.2,0,1,0,0,0,0.324769,0,0,45
'Singapore University of Technology and Design',1,0,0,1,0,0,1,1,1,1,1,0,1,0,1,1,1,1,1,0,1,0,0,1,1,1,0,1,1,0,1,1,1,1,1,1,1,1,1,1,0,0,1,0,1,1,1,21,0,1,1,0,0,0,1,90,1,0,1,1,1,0,80,0,1,0,0,0,-0.318965,0,0,45
'University of Hong Kong',1,0,0,1,0,0,1,1,0,0,1,1,3,1,0,1,1,1,1,2,0,0,0,1,0,1,0,1,1,1,1,1,1,1,1,1,1,0,1,0,0,0,0,1,1,1,0,12.63,0,1,0,0,0,0,0,90,1,0,0,1,1,0,82.9,0,1,1,0,0,0.608309,3650,1,45
'Universiti Teknologi Malaysia',1,0,0,1,0,0,1,1,0,0,1,0,1,0,0,0,1,0,0,0,0,0,0,1,0,1,1,1,1,1,1,1,1,1,1,0,1,0,1,0,1,0,0,0,1,1,1,5.74,0,1,1,0,0,0,1,90,1,0,0,0,1,1,13.3,0,1,1,0,0,-0.8423,3650,1,45
'Multimedia University of Kenya',1,0,0,1,1,0,0,0,1,1,0,0,1,1,1,1,0,1,1,1,0,0,0,0,0,1,0,1,1,1,1,1,1,1,1,0,1,0,1,1,0,0,1,0,1,1,1,5.33,0,1,1,0,0,1,0,90,1,3,0,0,1,1,33.3,0,1,0,0,1.38629,-0.325625,5,0,45
'Jilin University',1,0,0,0,0,0,0,1,0,0,1,1,10,0,1,1,1,0,0,1,1,0,0,0,0,1,0,0,1,1,1,1,1,0,1,0,1,0,1,0,0,0,0,0,1,0,0,21,0,1,0,0,0,0,0,75,1,0,0,0,1,0,0,0,0,0,0,0,-0.146594,62,0,45
'Uva Wellassa University',1,0,0,0,0,1,0,0,0,0,0,0,0,1,0,1,1,1,1,4,1,0,0,1,1,1,1,1,1,1,1,1,1,1,1,1,1,1,1,1,1,0,0,0,1,1,1,21,0,1,1,0,0,0,1,75,1,0,0,0,1,1,45.6,0,1,0,0,0,1.497,3650,1,45
'Stevens Institute of Technology',0,0,0,0,0,0,0,1,1,1,1,1,3,1,1,1,0,1,1,7,1,1,0,1,1,1,1,1,1,1,1,1,1,1,1,1,1,1,1,0,0,1,0,1,1,1,1,21,0,1,0,0,0,0,1,90,1,0,1,1,1,1,78.3,0,1,0,0,0,-0.405249,32,0,45
'NIT Srinagar',1,0,0,1,0,0,0,1,1,1,1,0,1,1,0,1,1,1,1,6,0,0,0,0,0,1,1,1,1,1,1,1,1,0,1,1,1,1,1,0,0,0,1,0,1,1,1,5.33,0,1,1,0,0,0,0,75,1,1,1,1,1,1,0,0,0,0,0,0.693147,-1.04083,3650,1,45
'IIIT Allahabad',1,0,0,0,0,0,0,1,0,0,1,0,0,1,1,1,1,1,1,8,1,1,0,0,0,1,0,1,1,1,1,1,1,1,1,0,1,1,1,0,0,0,0,1,0,1,0,12.63,0,1,0,0,1,0,0,75,1,1,0,0,1,1,0,0,1,0,0,0.693147,-0.00663471,0,0,45
'NIT Jalandhar',1,0,0,1,0,0,0,1,1,1,1,1,4,1,1,1,0,1,1,0,1,1,0,1,0,1,0,1,1,1,1,1,1,1,1,1,1,1,1,1,1,0,0,0,1,1,0,20.19,0,1,1,1,0,1,0,75,1,5,1,0,1,1,14.9,0,1,0,0,1.79176,0.068319,78,0,45
'NIT Hamirpur',1,0,0,1,1,0,0,1,1,0,1,1,5,1,1,1,1,1,1,15,1,1,0,0,0,1,0,1,1,1,1,1,1,1,0,0,1,1,1,1,1,0,0,0,1,1,0,5.83,0,1,1,0,0,1,0,75,1,0,1,1,1,1,74.5,0,1,0,0,0,0.56725,0,0,45
'Jaume I University',1,0,0,1,1,0,0,1,0,0,1,1,7,1,1,1,1,1,1,0,1,1,0,0,1,1,0,0,1,0,1,1,1,0,1,0,1,1,1,1,0,0,1,0,0,1,1,19.8,0,1,1,0,0,0,0,75,1,0,1,0,1,1,100,0,1,1,0,0,-0.00939172,0,0,45
'University of the West Indies',1,0,0,1,0,0,0,1,0,0,1,0,0,0,1,1,0,1,1,2,1,1,0,0,1,1,0,1,1,0,1,1,1,0,0,1,1,0,1,0,0,0,0,0,1,0,0,9.29,0,1,0,0,0,0,0,75,1,0,0,1,1,0,95,0,1,1,0,0,0.385141,11,0,45
'National Taiwan Normal University',1,0,0,0,1,0,0,0,0,0,0,0,0,0,1,1,0,1,0,0,1,0,0,0,1,1,0,1,1,0,1,1,1,0,1,0,0,0,0,0,0,0,1,0,0,1,0,12.63,0,1,1,0,0,0,0,75,1,2,1,1,1,1,10.8,0,0,0,0,1.09861,-0.259568,14,0,44.87
'Capital Normal University',1,1,6,0,0,0,0,0,0,0,0,1,2,0,0,1,0,1,0,0,0,0,0,0,0,1,0,1,1,0,1,1,1,0,0,0,0,0,1,0,0,0,1,0,1,1,0,12.63,0,1,1,0,0,1,0,75,1,0,0,0,1,0,0,0,0,0,0,0,-0.2993,3650,1,44.43
'Federal University of ABC',1,1,8,0,0,0,0,1,0,0,1,0,0,0,0,1,1,0,0,0,1,1,0,0,0,1,0,1,1,0,1,1,1,0,0,0,0,0,1,0,0,0,0,0,1,1,0,9.52,0,1,1,0,0,0,1,90,1,0,0,0,0,1,66.7,0,1,0,0,0,0.295664,3650,1,44.28
'Korea University',1,1,9,0,0,0,1,1,0,0,1,1,10,0,1,0,1,0,0,2,0,0,0,1,1,1,0,0,1,0,0,1,1,0,0,0,0,0,0,0,0,0,1,1,1,1,1,14.94,0,1,1,1,0,0,0,75,1,0,0,0,0,1,100,0,1,0,0,0,2.35751,5,0,44.06
'Fudan University',1,0,0,0,0,0,0,0,0,0,1,1,7,0,0,1,0,1,1,0,1,0,0,0,1,1,0,1,1,0,1,1,1,0,1,1,1,0,1,0,0,0,0,0,1,0,0,12.63,0,1,0,0,0,0,0,75,1,2,1,1,1,0,0,0,0,0,0,1.09861,0.0121322,3650,1,43.87
'Politehnica University of Timisoara',1,1,1,0,0,0,0,1,0,0,0,0,0,0,1,0,1,1,0,0,0,0,0,0,1,0,0,0,0,0,1,1,0,0,0,0,1,0,1,0,0,0,1,0,1,1,1,19.51,0,0,1,0,0,0,0,75,1,0,1,1,1,1,100,0,1,0,0,0,-0.248897,0,0,43.82
'Externado University of Colombia',1,1,7,1,1,0,0,1,0,0,0,1,10,0,0,1,1,0,0,15,1,1,0,0,0,1,0,0,0,0,0,0,1,0,0,0,0,0,1,0,0,0,1,0,1,1,1,15.91,0,1,1,0,0,0,0,90,1,10,0,1,1,0,74.5,0,1,0,0,2.3979,-0.770205,3650,1,43.81
'West University of Timisoara',1,1,8,1,1,0,1,1,1,1,0,0,1,0,1,1,1,0,0,1,1,1,1,1,0,1,0,0,0,0,0,0,0,0,0,0,1,0,1,0,0,0,1,1,1,1,1,12.63,0,1,1,0,0,0,0,90,1,0,1,0,1,1,73.3,0,1,0,0,0,-0.0844497,14,0,43.62
'Higher University of San Andres Bolivia',1,1,1,1,1,0,0,0,0,0,0,1,10,0,1,1,1,1,1,18,1,1,1,0,0,1,0,1,0,0,0,0,0,0,0,0,0,0,1,1,0,0,1,0,1,1,0,8.69,0,1,1,0,0,0,0,75,1,4,0,1,1,1,76.9,0,1,0,0,1.60944,1.11751,1,0,43.44
'University of Salento',1,1,1,1,0,0,0,0,1,1,0,1,6,0,0,1,1,1,0,16,1,1,0,0,0,1,0,1,0,0,1,1,0,0,0,0,1,1,0,0,0,0,1,0,0,1,1,21,0,1,1,0,0,0,0,75,1,0,1,1,1,0,71.7,0,1,0,0,0,-0.943765,3650,1,43.28
'Mohammed V University in Rabat',1,1,3,0,0,0,0,0,1,1,0,1,6,0,1,0,0,1,0,13,1,1,1,0,0,1,0,1,0,0,0,1,1,0,0,0,0,0,1,0,0,0,0,0,1,1,0,6.29,0,1,1,0,0,0,0,75,1,0,0,1,1,0,95.6,0,1,0,0,0,-0.581995,3650,1,43.24
'University of Guadalajara',1,1,4,1,1,0,0,0,0,0,1,0,0,0,0,0,0,0,0,0,0,0,0,0,0,0,0,1,1,0,1,0,1,0,0,0,0,0,1,0,0,0,1,0,1,1,1,12.63,0,0,1,0,0,0,0,75,1,0,1,0,1,1,23.1,0,1,0,0,0,0.174071,3650,1,41.92
'University of Padua',1,1,6,1,1,0,0,0,0,0,0,1,3,0,0,1,0,1,0,20,1,1,1,0,1,1,0,1,0,0,0,1,0,0,0,0,0,0,0,0,0,0,1,0,1,1,1,21,0,1,1,1,0,0,0,90,1,0,1,1,1,1,76.9,0,1,0,0,0,-1.66945,3650,1,41.63
'National Tsing Hua University',1,0,0,1,0,0,1,1,0,0,1,1,2,0,1,1,0,1,0,0,0,1,0,0,0,1,0,1,1,0,1,1,1,0,0,0,1,1,0,0,0,0,0,0,1,1,0,9.74,0,1,0,0,0,0,0,50,1,0,0,1,1,0,73.1,0,1,0,0,0,-0.262578,496,0,41.46
'Northeastern University China',1,0,0,0,0,0,0,0,0,0,1,1,9,0,0,1,0,1,1,0,1,0,0,0,0,1,0,0,1,1,0,1,1,0,1,0,1,0,1,0,0,0,0,0,1,1,0,21,0,1,0,0,0,0,0,75,0,0,1,0,1,0,0,0,0,0,0,0,0.242496,3650,1,41.38
'Hue University',0,0,0,1,0,0,0,0,0,0,1,0,0,1,1,1,0,1,0,0,0,0,1,0,0,1,1,1,1,0,1,1,1,1,0,0,1,0,0,0,0,0,0,0,1,0,0,21,0,1,0,0,0,0,0,0,1,0,0,1,1,0,43.4,0,0,0,0,0,2.83168,581,0,41.25
'Rio de Janeiro State University',1,1,6,1,0,0,0,0,0,0,0,0,0,0,1,0,1,0,0,1,1,1,1,0,1,1,0,0,1,0,0,1,0,0,0,0,0,1,1,1,0,0,0,0,1,1,1,12.63,0,1,1,0,1,0,0,90,1,1,0,1,1,0,14,0,1,0,0,0.693147,2.80144,0,0,41.18
'Central University of Haryana',1,1,20,1,0,0,0,0,0,0,0,0,0,0,0,1,1,1,1,0,0,0,0,0,0,1,0,1,1,0,0,1,0,0,0,0,0,1,1,0,0,0,0,0,1,1,0,21,0,1,0,0,0,1,0,75,1,0,1,1,1,1,100,0,1,0,0,0,-0.383359,3650,1,41.06
'University of Naples Federico II',1,1,1,0,1,1,0,0,0,0,0,1,3,0,1,1,1,0,0,20,1,1,1,0,1,1,0,1,0,0,0,0,0,0,0,0,0,1,1,0,0,0,1,0,1,1,1,21,0,1,1,0,0,0,0,100,1,0,1,1,1,0,100,0,1,0,0,0,0.55847,0,0,40.69
'National Cheng Kung University',1,0,0,0,1,0,1,1,0,0,1,0,1,1,0,1,0,1,1,0,0,0,0,0,0,1,0,1,1,0,1,1,1,0,0,0,1,0,0,1,0,0,0,1,0,1,0,10.05,0,1,0,0,0,0,0,50,1,10,1,1,1,1,96.3,0,1,0,0,2.3979,0.0647065,3650,1,40.41
'University of the Andes',1,1,1,1,0,0,0,0,0,0,0,1,2,0,1,1,1,0,0,16,1,1,1,0,0,1,0,1,0,0,0,0,0,0,0,0,1,0,1,0,0,0,0,0,0,1,0,5.74,0,1,1,0,0,0,0,100,1,0,1,1,1,1,83.3,0,1,1,0,0,-1.10147,5,0,40.16
'State University of Maringa',1,0,0,1,1,0,0,1,0,0,1,0,0,0,0,1,0,1,0,0,0,0,0,0,0,1,0,1,1,0,0,1,1,0,1,0,0,0,0,1,0,0,1,0,1,0,0,12.63,0,0,1,0,0,0,0,75,1,0,1,1,1,1,13.6,0,1,0,0,0,0.191181,3650,1,40.14
'Anahuac University',1,1,9,1,1,0,0,1,1,1,1,1,6,0,1,0,0,0,0,11,0,0,1,0,0,1,0,1,0,0,0,0,0,0,0,0,0,0,1,1,0,0,0,0,1,1,1,12.63,0,1,1,1,0,0,0,75,1,0,0,1,1,1,94,0,1,0,0,0,-0.849304,67,0,39.94
'Rey Juan Carlos University',1,1,7,1,0,0,0,0,0,0,0,1,8,0,0,0,1,0,0,4,0,0,1,0,0,1,0,0,0,0,0,0,1,0,0,0,1,0,1,1,0,0,0,0,1,1,1,1.82,0,1,1,0,0,0,0,75,1,0,0,1,1,0,85.1,0,1,0,0,0,1.22718,3650,1,39.85
'Cayetano Heredia University',1,1,1,1,0,0,0,0,0,0,0,0,1,0,1,0,0,0,0,9,1,1,1,0,1,1,0,0,1,0,0,1,0,0,0,0,0,0,1,1,0,0,1,0,1,1,1,21,0,1,0,0,0,0,0,90,1,2,1,1,1,1,89.6,0,1,0,0,1.09861,-0.796571,25,0,39.84
'Getulio Vargas Foundation',1,1,8,0,1,0,0,1,0,0,0,1,10,0,1,1,0,0,0,8,1,1,1,1,0,1,0,1,0,0,0,1,0,0,0,0,0,1,0,0,0,0,0,0,1,1,1,15.43,0,1,1,0,0,0,0,75,1,0,1,1,1,0,78.6,0,1,1,0,0,0.583028,0,0,39.81
'University of the Republic Uruguay',1,1,5,1,0,1,0,0,0,0,1,1,8,0,1,0,0,0,0,20,1,1,1,0,1,1,0,0,0,0,0,0,0,0,0,0,0,0,1,0,0,0,1,0,1,1,1,18.26,0,1,1,0,0,0,0,100,1,0,1,0,1,0,100,0,1,0,0,0,0.82944,0,0,38.66
'National University of Asuncion',1,1,9,1,0,0,0,0,0,0,0,1,6,0,1,0,1,0,0,0,0,0,1,0,0,1,0,1,0,0,0,0,0,0,0,0,0,0,1,0,0,0,1,0,1,1,1,18.88,0,1,1,0,0,0,0,90,1,0,1,1,1,1,18.2,0,1,0,0,0,-1.78334,1,0,38.36
'University of Tunis El Manar',1,1,6,1,0,0,0,1,1,0,0,1,5,0,0,0,0,1,0,0,0,0,1,0,0,1,1,1,0,0,0,1,0,1,0,0,0,0,1,0,0,0,1,0,1,1,1,4.48,0,1,1,0,0,0,0,75,1,0,1,1,1,1,2.6,0,0,0,0,0,1.09577,3650,1,38.24
'Osaka University',1,1,5,0,1,1,0,0,0,0,1,1,10,0,0,1,0,0,1,2,1,1,1,0,1,1,0,0,1,0,0,1,0,0,1,0,0,0,0,0,1,0,0,0,1,1,0,21,0,1,0,0,0,0,0,75,1,0,1,1,1,0,79,0,1,0,0,0,-0.340637,3650,1,37.94
'Federal University of Goias',1,1,7,1,1,0,0,0,1,1,0,1,10,0,1,0,1,0,0,7,1,1,1,0,1,1,0,0,0,0,0,0,0,0,0,0,0,0,0,0,0,0,1,0,1,1,1,21,0,1,1,0,0,0,0,75,1,0,1,1,1,0,66.9,0,1,0,0,0,-0.0144196,4,0,37.57
'Cracow University of Technology',1,1,5,1,0,1,0,0,0,0,0,0,1,0,1,0,0,0,0,0,0,0,1,0,0,1,0,0,0,0,0,1,0,0,0,0,0,0,0,0,0,0,1,0,1,1,1,10.17,0,1,1,0,0,0,0,75,1,0,1,1,1,0,94.9,0,1,1,0,0,-0.60072,0,0,37.39
'Pablo de Olavide University',1,1,5,1,0,0,0,0,0,0,0,0,0,0,0,0,0,0,0,0,1,1,0,0,0,1,0,0,0,0,1,1,0,0,0,0,1,0,1,0,0,0,1,0,1,1,1,12.63,0,1,0,1,0,0,0,75,1,1,1,1,0,0,95.5,0,1,0,0,0.693147,-0.0373369,3650,1,36.99
'Torcuato di Tella University',1,1,16,1,0,0,0,0,1,1,1,1,2,0,0,0,1,0,0,0,0,0,0,0,0,1,0,0,0,0,0,0,1,0,0,0,0,0,1,0,0,0,1,0,1,1,1,14.13,0,1,1,0,0,0,0,75,1,0,1,1,1,1,10.3,0,0,0,0,0,-0.0354564,3650,1,36.85
'National University of Mar del Plata',1,1,8,1,0,0,0,1,1,1,0,0,0,0,0,1,0,0,0,20,1,1,0,0,1,1,0,0,0,0,1,0,0,0,0,0,0,0,1,1,0,0,1,0,0,1,1,21,0,1,1,0,0,0,0,50,1,1,1,1,1,0,89.2,0,1,0,0,0.693147,-0.114415,3650,1,36.63
'Vietnam National University Hanoi',1,1,8,0,0,0,1,1,0,0,1,1,9,0,1,0,0,0,0,0,1,1,1,1,0,1,0,0,0,0,1,1,0,0,0,0,0,0,0,0,0,0,1,1,1,1,0,6.89,0,1,1,0,0,0,0,75,1,0,1,1,1,0,100,0,1,0,0,0,-0.477491,1,0,36.59
'National University of Salta',1,1,8,1,0,0,0,0,0,0,0,0,0,0,1,1,1,0,0,0,1,0,1,0,1,1,0,0,0,0,0,0,0,0,0,0,0,0,1,0,0,0,0,0,1,1,0,16.62,0,1,1,0,0,0,0,90,1,1,1,0,1,1,28.6,0,1,0,0,0.693147,0.546985,1,0,36.25
'Federal University of Acre',1,1,10,1,1,0,0,0,0,0,0,0,0,0,1,0,1,0,0,20,0,0,1,0,0,1,0,0,0,0,0,0,0,0,0,0,0,0,0,0,0,0,0,0,0,1,1,14.74,0,0,1,1,0,0,0,75,1,0,1,0,1,1,80,0,1,0,0,0,-0.606959,1,0,36.16
'National University of Mongolia',1,1,5,1,1,0,0,0,0,0,0,1,2,0,1,1,0,0,0,5,1,1,0,0,0,1,0,0,0,0,0,0,0,0,0,0,0,0,0,0,0,0,1,0,1,1,1,14.55,0,1,0,0,0,0,0,90,1,0,1,0,1,1,26.7,0,1,0,0,0,1.23198,1,0,35.83
'Federal University of Alagoas',1,1,10,1,0,0,0,0,0,0,0,1,10,0,1,0,1,0,0,2,0,0,1,0,0,1,0,0,0,0,0,0,0,0,0,0,0,1,0,0,0,0,0,0,0,1,1,12.71,0,1,1,1,0,0,0,75,1,0,1,1,1,0,50,0,1,0,0,0,0.186693,1,0,35.57
'University of Extremadura',1,1,5,1,0,0,0,0,0,0,0,1,6,0,1,0,0,0,0,0,1,1,1,0,0,1,0,0,0,0,0,0,0,0,0,0,0,0,1,0,0,0,1,0,0,1,1,15.43,0,1,1,0,0,0,0,75,1,0,1,1,1,0,69.4,0,1,0,0,0,-1.27678,1,0,35.3
'Tampere University',0,1,4,0,1,0,0,0,0,0,0,0,0,0,0,0,0,1,0,0,0,0,0,0,0,0,0,0,0,0,0,1,0,0,1,0,0,0,1,1,0,0,1,0,0,0,1,21,0,0,0,0,1,0,0,70,1,0,1,1,1,0,0,0,1,0,0,0,-0.765924,3650,1,35.29
'Federal University of Mato Grosso do Sul',1,1,9,0,1,0,0,0,0,0,0,0,0,0,1,0,1,0,0,20,1,1,1,0,0,1,1,0,0,0,0,0,0,0,0,0,0,0,1,1,0,0,1,0,0,0,0,4.76,0,1,1,0,0,0,0,90,1,0,1,1,1,1,86,0,1,0,0,0,0.211376,1,0,35.27
'Charles University',1,1,7,1,0,0,0,0,0,0,1,1,10,0,0,1,0,0,0,5,1,1,0,1,1,1,0,0,0,0,1,1,0,0,0,0,1,0,0,1,0,0,1,0,1,1,1,12.61,0,1,1,0,0,0,0,75,1,3,1,0,1,0,6.9,0,1,0,0,1.38629,1.0167,3650,1,35.13
'University of Panama',1,1,11,1,0,0,0,0,0,0,0,1,6,0,1,0,1,0,0,0,1,1,1,0,1,1,1,1,0,0,0,0,0,0,0,0,0,0,1,0,0,0,0,0,1,1,0,12.63,0,1,1,0,0,0,0,75,1,1,0,0,1,1,88,0,1,1,0,0.693147,-0.912695,29,0,35.06
'State University of Santa Cruz',1,1,8,0,1,0,0,0,0,0,1,0,0,0,0,0,1,0,0,0,0,0,0,0,0,1,0,1,1,0,1,1,0,0,0,0,0,0,1,0,0,0,1,0,1,1,0,15.43,0,0,1,0,0,0,0,75,1,0,1,1,1,0,8.9,0,1,0,0,0,0.169162,3650,1,34.6
'Beijing University of Chemical Technology',1,1,4,1,0,0,0,0,0,0,0,0,0,1,1,1,0,1,0,0,0,0,0,0,0,1,0,0,0,0,0,0,0,0,0,0,0,0,0,0,0,0,1,0,1,0,0,16.48,0,1,0,0,0,0,0,75,1,2,1,0,1,0,0,0,1,0,0,1.09861,-0.230873,8,0,34.18
'University of Valladolid',0,1,0,0,0,0,0,0,0,0,0,0,0,0,0,0,0,1,0,0,0,0,0,0,1,1,0,0,1,0,0,1,1,0,0,0,0,0,1,0,0,0,0,0,0,0,0,15.43,0,1,0,0,0,0,0,75,1,6,1,0,1,0,100,0,1,0,0,1.94591,0.492189,3650,1,34.13
'University of San Andres',1,0,0,1,0,0,0,0,1,1,0,0,0,0,1,0,1,0,0,17,1,1,1,0,1,1,0,1,0,0,0,0,1,0,0,0,0,0,0,0,0,0,1,0,0,1,1,11.13,0,1,0,0,0,0,0,90,1,0,1,1,1,1,40,0,1,0,0,0,-1.17313,3650,1,34.02
'Ricardo Palma University',1,1,6,0,0,0,0,1,1,1,0,1,2,0,1,0,1,0,0,0,1,1,1,0,1,1,0,1,0,0,0,0,0,0,0,0,0,0,1,1,0,0,0,0,1,1,0,6.01,0,1,1,0,0,0,0,75,1,0,1,1,1,1,100,0,1,0,0,0,-0.587745,0,0,33.88
'University of the State of Rio de Janeiro Norte',1,1,9,1,0,0,0,0,0,0,0,0,0,0,1,0,1,0,0,18,0,0,1,0,0,1,0,1,0,0,0,0,0,0,0,0,0,0,0,0,0,0,1,0,1,1,0,21,0,1,1,0,0,0,0,90,1,0,1,0,0,0,33.3,0,1,0,0,0,0.295805,1,0,33.76
'Tashkent State Technical University',1,0,0,1,0,0,0,0,0,0,0,1,9,0,1,0,0,0,0,4,1,1,1,0,1,1,0,0,0,0,0,0,1,0,0,0,0,0,0,0,0,0,0,0,1,1,0,7.23,0,1,1,0,0,0,0,75,1,0,1,1,1,1,70.9,0,1,0,0,0,0.543787,4,0,33.75
'National University of Engineering Peru',1,1,10,0,0,0,0,1,0,0,0,0,0,0,1,0,0,0,0,1,0,1,1,0,0,1,0,1,0,0,0,0,0,0,0,0,0,0,1,0,0,0,1,0,1,1,1,12.63,0,1,1,0,0,0,0,75,1,0,1,1,1,1,63.6,0,1,0,0,0,0.0324226,26,0,33.67
'University of Malaga',1,1,5,1,0,0,0,0,0,0,0,1,6,0,0,1,1,0,0,6,1,1,0,0,1,1,0,0,1,0,0,0,0,0,0,0,1,0,1,0,0,0,1,0,0,1,1,12.63,0,1,0,0,0,0,0,75,1,0,0,0,1,0,35.9,0,1,0,0,0,1.045,3650,1,33.47
'Federal University of Vicosa',1,1,7,1,0,0,0,0,0,0,0,0,0,0,1,0,0,0,0,0,1,0,1,0,1,1,0,0,0,0,0,1,0,0,0,0,0,0,0,0,0,0,1,0,0,1,1,17.61,0,1,1,0,0,0,0,75,1,0,1,0,1,1,33.3,0,1,0,0,0,-0.221563,1,0,33.42
'Warsaw University of Technology',1,1,5,1,0,0,0,0,1,1,0,1,4,0,0,0,0,0,0,1,1,1,0,1,0,1,0,0,0,0,0,1,0,0,0,0,0,0,1,1,0,0,1,0,1,1,1,15.43,0,1,1,0,0,0,0,75,1,0,1,1,1,0,86.4,0,1,0,0,0,1.40919,3650,1,33.36
'Volda University College',1,1,4,1,1,0,0,0,0,0,0,1,10,0,1,0,0,0,0,13,1,1,1,0,0,1,0,0,0,0,0,0,0,0,0,0,0,0,0,1,0,0,1,0,0,1,1,14.11,0,1,1,0,0,0,0,75,1,0,1,0,1,1,19.4,0,1,0,0,0,-0.401459,1,0,33.36
'Aswan University',1,1,9,1,1,0,0,1,0,0,0,0,0,0,1,0,0,0,0,1,1,1,0,0,1,1,0,0,0,0,0,0,0,0,0,0,0,0,0,0,0,0,0,1,0,1,0,5.74,0,1,1,0,0,0,0,90,1,0,1,1,1,1,31.5,0,1,1,0,0,0.528192,0,0,33.33
'University of Murcia',1,1,1,0,1,0,0,0,1,1,0,1,5,0,1,0,0,0,0,12,1,0,1,0,0,1,0,1,1,0,0,0,0,0,0,0,1,0,1,1,0,0,0,0,0,0,0,15.18,0,1,1,0,0,0,0,100,1,0,1,1,1,0,81.4,0,1,0,0,0,0.11045,28,0,33.23
'Federal University of Uberlandia',1,1,10,0,0,1,0,1,0,0,0,0,0,0,1,0,1,0,0,2,1,1,1,0,0,1,0,0,0,0,0,0,0,0,0,0,0,0,0,0,0,0,0,0,1,1,1,15.43,0,1,1,0,0,0,0,75,1,0,1,1,1,1,41.1,0,1,0,0,0,-0.338528,0,0,33.12
'University of Beira Interior',1,1,6,0,0,0,1,1,0,0,1,0,0,0,1,1,0,1,1,14,1,1,0,1,1,1,0,0,1,0,0,1,0,0,0,0,0,0,0,0,0,0,1,0,0,1,0,15.43,0,1,1,0,0,1,0,75,1,0,1,0,1,0,19.4,0,1,0,0,0,-0.131563,641,0,33.1
'University of Health Sciences Lahore',1,0,0,0,0,0,0,0,0,0,0,0,0,1,0,1,0,1,0,0,1,1,0,0,0,0,0,1,0,0,0,0,1,0,0,0,0,0,0,0,1,0,0,0,0,0,0,15.43,0,0,0,0,0,0,0,75,1,0,1,1,0,1,0,0,1,0,0,0,-1.05387,3650,1,32.13
'Beni-Suef University',1,1,7,1,0,0,0,1,0,0,0,1,10,0,1,0,0,0,0,2,0,0,0,0,0,1,0,1,0,0,0,1,0,0,0,0,0,0,0,0,0,0,0,0,1,0,0,15.91,0,1,1,0,0,0,0,75,1,0,1,0,1,1,42.9,0,0,0,0,0,0.36761,0,0,32.07
'Fluminense Federal University',1,1,8,1,0,0,0,0,1,1,0,1,5,0,0,0,1,0,0,17,0,0,0,0,0,1,0,0,0,0,0,0,0,0,0,0,0,1,0,0,0,0,1,0,1,1,1,18.35,0,1,1,0,0,0,0,100,1,0,1,1,1,1,85,0,1,0,0,0,0.845989,3650,1,31.99
'National Agrarian University La Molina',1,1,3,1,0,0,0,0,0,0,0,1,4,0,1,0,0,0,0,0,1,1,1,0,0,1,0,1,0,0,0,0,0,0,0,0,0,0,0,1,0,0,1,0,1,1,1,12.63,0,1,0,0,0,0,0,75,1,0,0,1,1,0,100,0,1,0,0,0,-0.485506,7,0,31.75
'Andalas University',1,1,8,0,0,0,0,0,0,0,0,0,0,0,1,0,0,0,0,0,1,0,0,0,0,1,0,0,0,0,0,0,0,0,0,0,1,0,1,0,0,0,0,0,1,1,0,21,0,1,1,0,0,0,0,75,1,0,1,1,1,0,69.1,0,1,1,0,0,-0.556553,0,0,31.61
'Federal University of Juiz de Fora',1,1,7,1,0,0,0,0,0,0,0,0,1,0,1,0,0,0,0,0,0,0,1,0,0,1,0,0,1,0,0,0,0,0,0,0,0,1,0,0,0,0,0,0,1,1,0,6.93,0,1,0,0,0,1,0,75,1,0,1,1,1,1,45.5,0,1,0,0,0,0.184589,4,0,31.53
'Federal University of the Semi-Arid Region',1,1,5,1,1,0,0,0,0,0,0,0,0,0,0,0,1,0,0,0,0,0,0,0,1,1,0,0,0,0,0,0,0,0,0,0,0,1,1,1,0,0,1,0,0,1,1,12.63,0,1,1,0,0,0,0,90,1,0,1,0,1,1,26,0,0,0,0,0,0.583168,3650,1,31.51
'University of Guadalajara CUCEA',1,1,7,1,0,0,0,0,0,0,0,0,0,0,1,0,1,0,0,4,0,0,1,0,1,1,0,0,0,0,0,0,0,0,0,0,0,0,0,0,0,0,1,0,1,1,1,12.63,0,1,1,0,0,0,0,75,1,1,0,0,1,1,78.3,0,1,0,0,0.693147,0.0479899,189,0,31.51
'State University of Goias',1,1,20,0,0,0,0,0,0,0,0,0,0,0,1,0,1,0,0,2,1,1,1,0,0,1,0,0,0,0,0,0,0,0,0,0,0,0,1,1,0,0,0,0,0,1,1,19.03,0,1,0,0,0,0,0,75,1,0,1,0,1,1,30.9,0,0,0,0,0,-0.015261,1,0,31.4
'UiT The Arctic University of Norway',1,1,15,1,0,0,0,0,0,0,0,1,7,0,0,1,0,0,1,0,1,1,1,0,0,1,0,1,1,0,0,1,0,0,0,0,0,0,0,1,0,0,0,0,0,1,1,15.43,0,1,0,1,0,1,0,75,1,0,1,0,1,0,100,0,1,0,0,0,0.491639,3650,1,31.39
'Ewha Womans University',1,1,2,0,0,0,0,1,0,0,0,0,0,0,1,0,0,0,0,14,1,1,1,0,1,1,0,0,0,0,0,0,0,0,0,0,0,1,0,0,0,0,1,1,1,1,1,12.63,0,1,0,1,0,0,0,75,1,0,1,0,1,1,100,0,1,0,0,0,4.00698,0,0,31.39
'Autonomous University of Hidalgo',1,1,8,1,0,0,0,1,0,0,0,1,3,0,1,0,1,0,0,4,1,1,1,0,1,1,0,1,0,0,0,0,0,0,0,0,1,0,0,0,0,0,0,0,1,1,0,12.63,0,1,0,0,0,0,0,75,1,1,1,1,1,1,67.7,0,1,0,0,0.693147,-0.315528,3650,1,31
'University of Electronic Science and Technology of China',0,1,8,1,1,0,0,0,0,0,0,1,10,0,0,1,0,0,1,5,1,0,0,0,0,1,0,0,1,0,0,1,0,0,0,0,0,0,0,0,0,0,0,0,0,1,0,19.77,0,1,0,0,0,0,0,75,1,0,1,0,1,0,55.8,0,1,0,0,0,1.83718,3650,1,30.93
'Minia University',1,1,9,0,1,0,0,0,0,0,0,1,9,0,1,0,0,0,0,6,1,1,0,0,0,1,0,0,0,0,0,0,0,0,0,0,0,0,0,0,0,0,0,0,1,1,1,15.43,0,1,1,0,0,0,0,75,1,1,1,1,1,0,61.5,0,1,0,0,0.693147,-0.530665,0,0,30.92
'Autonomous University of Queretaro',1,1,7,1,0,0,0,1,1,1,0,0,0,0,0,0,1,0,0,0,1,1,0,0,0,1,0,1,0,0,0,0,0,0,0,0,0,0,1,0,0,0,0,0,0,1,1,9.76,0,1,1,0,0,0,0,75,1,2,1,1,1,1,16.9,0,1,0,0,1.09861,-0.315668,3650,1,30.89
'Fuzhou University',1,0,0,0,0,0,0,0,0,0,0,1,2,0,0,0,0,0,0,0,0,0,0,0,0,0,0,0,1,1,1,0,1,0,0,0,1,0,1,0,0,0,0,0,1,0,0,21,0,0,0,0,0,0,0,0,1,0,1,0,0,0,0,0,0,0,0,0,0.599078,3650,1,30.64
'Adolfo Ibanez University',1,1,4,0,0,0,0,1,1,1,0,1,10,0,0,0,0,0,0,20,1,1,0,0,1,1,0,1,0,0,1,0,0,0,0,0,1,0,0,0,0,0,1,0,0,1,1,17.96,0,1,0,0,0,0,0,100,1,0,1,1,1,1,78.8,0,1,0,0,0,-1.20469,3650,1,30.49
'Catholic University of the North',1,1,9,1,1,0,0,0,0,0,0,1,10,0,0,0,0,0,0,0,1,1,0,0,0,1,0,0,0,0,0,0,0,0,0,0,1,0,1,1,0,0,1,0,1,1,1,10.7,0,1,1,0,0,0,0,75,1,0,0,1,1,1,18.5,0,1,0,0,0,-0.506823,3650,1,30.37
'National University of Cuyo',1,1,4,1,0,0,0,0,1,1,0,0,0,0,0,0,1,0,0,0,1,1,0,0,0,1,0,1,0,0,0,0,0,0,0,0,0,0,1,0,0,0,0,0,1,1,0,14.02,0,1,1,0,0,0,0,75,1,0,1,1,1,1,86.8,0,1,0,0,0,-0.376535,3650,1,29.99
'Kanazawa Institute of Technology',1,0,0,0,1,0,0,0,0,0,0,1,10,0,0,1,0,1,0,7,1,1,0,0,0,1,0,1,1,0,1,0,0,0,0,0,0,0,0,0,0,0,1,0,1,1,1,21,0,1,1,0,0,0,0,100,1,0,0,1,1,0,45.5,0,1,0,0,0,0.268382,3650,1,29.97
'University of Szczecin',1,1,6,0,0,0,0,0,0,0,0,0,0,0,0,1,0,1,0,0,1,1,0,0,0,1,0,1,0,0,0,1,0,0,0,0,0,0,0,0,0,0,0,0,1,1,0,4.03,0,1,0,0,0,0,0,90,0,0,1,1,1,1,100,0,1,1,0,0,1.26068,3650,1,29.87
'Renmin University of China',1,0,0,1,1,0,0,0,0,0,0,1,10,0,1,1,0,0,1,5,1,1,0,0,0,1,0,0,1,0,1,0,0,0,0,0,0,0,0,0,0,0,1,0,1,0,0,12.63,0,1,1,0,0,0,0,75,1,0,0,0,1,0,0,0,1,0,0,0,0.363698,0,0,29.75
'Federal University of Rio Grande do Sul',1,1,10,0,0,0,0,0,0,0,0,0,0,0,0,1,1,0,0,20,1,1,0,0,1,1,0,0,0,0,0,0,0,0,0,0,0,0,1,1,0,0,1,0,0,1,0,11.37,0,1,1,0,0,0,0,90,1,1,1,1,1,1,28.6,0,1,0,0,0.693147,2.35672,3650,1,29.47
'Pontifical Bolivarian University',1,1,5,0,0,0,0,1,0,0,0,1,2,0,0,0,0,0,0,14,1,1,0,0,1,1,0,1,0,0,0,0,0,0,0,0,0,0,1,0,0,0,1,0,1,1,1,21,0,1,1,0,0,0,0,100,1,0,1,1,1,1,33.3,0,1,0,0,0,-0.4482,3650,1,29.45
'Federal University of Piaui',1,1,4,1,0,0,0,0,1,1,1,0,0,0,0,0,1,0,0,0,1,1,1,0,0,1,0,0,0,0,0,0,0,0,0,0,0,0,1,1,0,0,0,0,0,1,1,12.63,0,1,1,0,0,0,0,75,1,0,1,0,1,1,54.5,0,1,0,0,0,0.697048,3650,1,29.43
'Autonomous University of Nayarit',1,1,10,1,0,0,0,0,0,0,0,0,0,0,0,0,1,0,0,0,1,1,0,0,1,1,0,1,0,0,0,0,0,0,0,0,0,0,1,0,0,0,0,0,1,1,0,12.98,0,1,0,0,0,0,0,75,1,1,1,1,1,1,87.1,0,1,0,0,0.693147,0.77769,3650,1,29.41
'University of Fortaleza',1,1,1,1,1,0,0,0,0,0,0,0,0,0,0,1,0,0,0,18,1,1,0,0,0,1,0,0,0,0,0,0,0,0,0,0,0,0,0,0,0,0,1,0,0,1,1,15.43,0,1,1,1,0,0,0,100,1,0,1,1,1,1,69,0,1,0,0,0,1.93724,3650,1,29.26
'University of Chemistry and Technology Prague',1,0,0,0,0,0,0,0,0,0,0,1,9,0,1,0,0,0,0,0,1,1,1,1,0,1,0,0,0,0,0,0,1,0,0,0,1,0,0,0,0,0,1,0,1,1,1,16.3,0,0,1,0,0,0,0,75,1,0,1,0,1,0,81,0,1,0,0,0,0.0155082,0,0,29.11
'University of Guelph',0,0,0,0,0,0,1,1,0,0,0,0,0,0,0,1,0,0,1,0,1,0,0,0,0,1,0,0,0,0,1,0,1,0,0,0,0,1,0,0,0,0,0,0,0,0,0,7.46,0,1,0,0,0,0,1,75,1,0,0,1,0,1,33.3,0,1,0,0,0,0.0550681,3650,1,29.01
'Federal University of Minas Gerais',1,1,6,1,0,0,0,1,0,0,0,1,10,0,1,0,1,0,0,2,1,1,1,0,0,1,0,0,0,0,0,0,0,0,0,0,0,0,0,0,0,0,1,0,1,1,1,20.14,0,1,1,0,0,0,0,90,1,0,0,0,1,0,14.3,0,1,0,0,0,-0.466853,3650,1,28.9
'Amazonas State University',1,1,7,1,0,0,0,0,0,0,0,0,0,0,0,0,1,0,0,1,1,1,0,0,0,1,0,0,0,0,0,0,0,0,0,0,0,0,0,0,0,0,1,0,1,1,1,3.9,0,1,1,0,0,0,0,90,1,0,1,1,1,1,77.6,0,1,0,0,0,0.0920271,3650,1,28.49
'Nanjing Agricultural University',1,1,6,1,0,0,0,0,0,0,0,1,10,1,0,1,0,0,0,0,1,0,0,0,1,1,0,1,0,0,0,1,0,0,0,0,0,0,0,0,0,0,0,0,1,0,0,11.98,0,1,0,0,0,0,0,75,1,1,1,1,1,0,1.7,0,0,0,0,0.693147,-0.0763611,3650,1,28.4
'University of Sao Paulo',1,1,4,1,0,0,0,0,0,0,0,0,0,0,1,0,0,0,0,1,0,0,1,0,0,1,0,0,0,0,0,0,0,0,0,0,0,0,0,0,0,0,1,0,0,0,0,18.96,0,1,1,0,0,0,0,90,1,3,1,0,1,1,0,0,1,0,0,1.38629,0.366629,4,0,28.23
'University of Quintana Roo',1,1,10,0,0,0,0,0,1,1,0,1,3,0,0,0,1,0,0,20,1,1,0,0,1,1,0,1,0,0,0,0,0,0,0,0,0,0,0,1,0,0,1,0,0,1,1,13.97,0,1,1,1,0,0,0,75,1,0,1,1,0,1,86.5,0,1,0,0,0,-0.450865,3650,1,27.9
'University of Karachi',1,1,1,1,1,0,0,0,0,0,0,0,0,0,0,0,0,0,0,0,0,0,0,0,0,1,0,1,1,0,0,1,0,0,0,0,0,0,1,1,0,0,0,0,1,0,0,21,0,1,1,0,0,0,0,90,1,0,0,0,1,0,11.1,0,1,0,0,0,0.100419,3650,1,27.76
'University of Iceland',1,1,4,1,1,0,0,0,1,1,0,0,0,0,0,0,0,0,0,0,0,0,0,0,0,1,0,0,0,0,0,0,0,0,0,0,0,0,0,0,0,0,1,0,1,1,1,21,0,1,1,1,0,0,0,75,1,0,1,1,1,1,82.6,0,1,0,0,0,0.250844,3650,1,27.41
'Ferhat Abbas University of Setif',1,1,4,1,0,0,0,0,0,0,0,1,10,0,0,0,0,0,0,1,1,1,0,0,0,1,0,0,0,0,0,0,0,0,0,0,0,0,1,0,0,0,0,0,1,1,0,15.33,0,1,0,0,0,0,0,75,1,0,1,1,1,1,17.7,0,1,0,0,0,-0.261393,3650,1,27.24
'Instituto Politecnico Nacional',1,1,3,1,0,0,0,0,0,0,0,1,9,0,0,0,1,0,0,0,1,1,0,0,0,1,0,0,0,0,0,0,0,0,0,0,0,0,0,0,0,0,1,0,0,1,1,15.43,0,1,0,0,0,0,0,75,1,0,0,1,1,1,97.2,0,1,0,0,0,-0.494226,3650,1,27.21
'Federal University of Parana',1,1,7,1,0,0,0,0,0,0,0,0,0,0,0,0,1,0,0,20,1,1,0,0,1,1,0,0,0,0,0,0,0,0,0,0,0,0,0,0,0,0,1,0,1,1,0,15.43,0,1,1,0,0,0,0,90,1,0,1,0,1,1,44.4,0,1,0,0,0,1.0565,3650,1,26.9
'University of Sonora',1,1,4,1,0,0,0,0,0,0,0,0,0,0,0,0,1,0,0,0,0,0,0,0,1,1,0,1,0,0,0,0,0,0,0,0,0,0,0,0,0,0,1,0,1,1,1,16.29,0,1,1,0,0,0,0,75,1,0,0,0,1,1,99.1,0,1,0,0,0,-0.143165,3650,1,26.9
'Ceara State University',1,1,9,0,0,0,0,0,0,0,0,0,0,0,0,0,1,0,0,0,0,0,0,0,0,1,0,0,0,0,0,0,0,0,0,0,0,0,1,1,0,0,0,0,1,1,1,21,0,1,1,0,0,0,0,75,1,0,0,0,1,1,51.7,0,1,0,0,0,-0.0362979,3650,1,26.88
'Diego Portales University',1,0,0,1,0,0,0,0,0,0,0,0,0,0,0,0,0,0,0,0,0,0,0,0,0,1,0,1,0,0,0,1,0,0,1,0,1,0,1,0,0,0,1,0,0,1,1,21,0,1,1,0,1,0,0,75,1,2,1,0,0,1,0,0,1,0,0,1.09861,-1.2124,3650,1,26.84
'Autonomous University of Ciudad Juarez',1,1,8,1,1,0,0,1,0,0,0,0,0,0,0,0,1,0,0,1,1,1,0,0,0,1,0,1,0,0,0,0,0,0,0,0,0,0,0,0,0,0,0,0,0,1,0,15.43,0,0,0,0,0,0,0,75,1,0,1,0,1,0,0,0,1,0,0,0,-1.10806,3650,1,26.32
'Autonomous University of Chihuahua',1,1,20,1,1,0,0,0,1,1,0,0,0,0,0,0,1,0,0,0,0,1,0,0,0,1,0,1,0,0,0,0,0,0,0,0,0,0,0,0,0,0,0,0,1,1,0,12.63,0,1,1,0,0,0,0,100,1,1,1,1,1,0,53.1,0,1,0,0,0.693147,0.184028,3650,1,26.16
'Federal University of Sergipe',1,1,8,1,0,0,0,0,0,0,0,0,0,0,0,0,0,0,0,20,1,1,0,0,0,1,0,0,0,0,0,0,0,0,0,0,0,0,0,0,0,0,0,0,1,1,1,18.59,0,0,1,0,0,0,0,90,1,7,1,1,1,0,9.5,0,1,0,0,2.07944,-1.27032,3650,1,26.04
'University of Antioquia',1,0,0,1,1,0,0,0,0,0,0,0,0,0,1,0,0,0,0,8,1,1,0,0,1,1,0,0,0,0,0,0,0,0,0,0,0,0,0,0,0,0,1,0,1,1,1,21,0,1,0,0,0,0,0,75,1,0,1,0,1,1,50,0,1,1,0,0,-0.474847,32,0,25.91
'University of Valle',1,1,8,0,0,0,0,0,0,0,0,0,0,0,0,0,0,0,0,0,1,0,1,0,1,1,0,1,0,0,0,0,0,0,0,0,0,0,1,0,0,0,1,0,1,1,1,5.1,0,1,1,0,0,0,0,90,1,2,1,1,1,0,80,0,1,0,0,1.09861,2.94225,3650,1,25.89
'National University of the Northeast',1,1,0,1,0,0,0,0,0,0,0,0,0,0,0,0,0,0,0,1,1,1,0,0,0,1,0,0,0,0,0,0,0,0,0,0,0,0,1,0,0,0,1,0,0,1,1,12.63,0,1,1,0,0,0,0,90,1,0,1,0,1,1,28.9,0,1,0,0,0,-0.0301271,3650,1,25.73
'Federal University of Sao Carlos',1,1,10,1,0,1,0,0,0,0,0,0,0,0,0,0,0,0,0,1,0,0,0,0,1,1,0,0,0,0,0,0,0,0,0,0,0,0,0,0,0,0,0,0,1,1,0,8.45,0,1,1,0,0,0,0,75,1,5,0,0,1,1,84.6,0,1,0,0,1.79176,-1.23091,3650,1,25.59
'National University of Tucuman',1,1,6,0,0,0,0,0,0,0,0,0,0,0,0,0,0,0,0,0,0,0,0,0,0,1,0,0,0,0,0,0,0,0,0,0,0,0,1,1,0,0,1,0,0,1,0,7.46,0,1,1,0,0,0,0,75,1,0,1,0,1,1,95.5,0,1,0,0,0,-0.960098,3650,1,25.29
'University of Buenos Aires',1,1,3,1,1,0,0,0,0,0,0,1,4,0,0,0,0,0,0,0,1,1,0,0,1,1,0,0,0,0,0,0,0,0,0,0,0,0,0,0,0,0,0,0,0,1,1,15.43,0,1,1,0,0,0,0,75,1,0,1,1,0,1,37.5,0,1,0,0,0,-0.412438,3650,1,25.22
'Sofia University St. Kliment Ohridski',0,0,0,1,0,0,0,0,0,0,0,0,0,0,0,0,0,0,0,3,1,1,0,0,0,0,0,0,0,0,0,0,1,0,0,0,0,0,0,0,0,0,0,0,1,0,0,11.62,0,0,0,1,0,0,0,20,1,0,1,1,1,1,50,0,0,0,0,0,-0.934809,3650,1,25.14
'Kyrgyz National University',1,1,8,1,1,0,0,0,0,0,0,0,0,0,0,0,0,0,0,0,1,1,0,0,1,1,0,0,0,0,0,0,0,0,0,0,0,0,0,0,0,0,0,0,0,1,0,7.38,0,1,1,0,1,0,0,90,1,0,1,0,1,1,71.4,0,1,0,0,0,-0.205914,3650,1,24.95
'National University of Cordoba',1,1,5,1,0,0,0,0,0,0,0,0,0,0,0,0,0,0,0,0,0,0,0,0,0,1,0,0,0,0,0,0,0,0,0,0,0,0,0,0,0,0,0,0,0,1,0,15.91,0,1,1,0,0,0,0,75,1,0,1,0,1,1,53.5,0,1,0,0,0,-1.09866,3650,1,23.83
'Federal Technological University of Parana',0,1,0,1,0,0,0,0,0,0,0,0,0,0,0,0,1,0,0,0,1,1,0,0,1,1,1,0,0,0,0,0,0,0,0,0,1,0,1,1,0,0,0,0,0,1,0,21,0,1,0,0,0,0,0,75,1,0,1,0,1,0,15.2,0,1,0,0,0,3.19819,3650,1,23.28
'Federal University of Tocantins',1,1,20,1,0,0,0,0,0,0,0,0,0,0,0,0,0,0,0,0,1,0,1,0,0,1,0,0,0,0,0,0,0,0,0,0,0,0,0,0,0,0,0,0,0,1,1,21,0,1,1,0,0,0,0,75,1,0,0,1,1,1,25,0,1,0,0,0,-0.440206,3650,1,23.18
'Austral University of Chile',1,1,7,0,0,0,0,0,0,0,0,1,3,0,0,0,0,0,0,0,1,1,0,0,0,1,0,0,0,0,0,0,0,0,0,0,1,0,1,1,0,0,0,0,1,1,0,4.48,0,1,1,0,0,0,0,75,1,0,0,0,0,1,33.3,0,1,0,0,0,2.1291,3650,1,21.9
'Sao Paulo State University',1,0,0,1,0,0,0,1,0,0,0,0,0,0,0,1,0,0,0,0,0,0,0,0,1,1,0,0,0,0,0,0,0,0,0,0,0,0,1,1,0,0,0,0,0,1,0,12.63,0,1,1,0,0,0,0,75,1,0,1,0,1,1,60.8,0,1,0,0,0,-0.188465,3650,1,21.87
'Federal University of Maranhao',0,1,10,1,0,0,0,0,0,0,0,0,0,0,0,0,0,0,0,0,0,0,0,0,0,0,0,0,0,0,0,0,0,0,0,0,0,0,0,0,0,0,0,0,0,1,0,14.74,0,0,0,0,0,0,0,75,1,0,0,0,1,0,33.3,0,1,0,0,0,-0.378919,3650,1,21.59
'Zhengzhou University',1,0,0,1,0,0,0,0,0,0,0,1,10,0,1,0,0,0,0,0,1,1,0,0,1,1,0,0,0,0,0,0,0,0,0,0,0,0,0,0,0,0,0,0,1,1,0,12.63,0,1,0,0,0,0,0,75,1,0,1,1,1,0,20.7,0,1,0,0,0,-0.211609,8,0,21.19
'Pontifical Catholic University of Sao Paulo',1,0,0,0,0,0,0,0,0,0,0,0,0,0,1,0,0,0,0,0,1,0,1,0,0,0,0,0,0,0,0,0,0,0,0,0,0,0,0,0,0,0,0,0,0,0,0,21,0,0,0,1,0,0,0,100,1,0,1,1,1,0,100,0,1,0,0,0,-0.799236,0,0,21.1
'National University of San Marcos',1,0,0,0,0,0,0,1,0,0,0,0,1,0,0,0,0,0,0,0,1,0,0,0,1,1,0,0,0,0,0,0,0,0,0,0,0,0,1,0,0,0,1,0,1,1,1,21,0,1,1,0,0,0,0,90,1,0,1,1,1,1,100,0,1,0,0,0,-0.582977,3650,1,20.38
'Federal University of Campina Grande',1,1,4,0,1,0,0,0,0,0,0,0,0,0,0,0,0,0,0,0,0,0,0,0,0,1,0,0,0,0,0,0,0,0,0,0,0,0,0,0,0,0,0,0,0,1,0,12.63,0,1,0,0,0,0,0,75,1,2,1,0,1,1,100,0,1,0,0,1.09861,1.17318,3650,1,19.93
'Hefei University of Technology',1,0,0,1,0,0,0,0,0,0,1,1,10,1,0,1,0,0,0,0,0,0,0,0,0,1,0,0,0,0,0,1,0,0,0,0,0,0,0,0,0,0,0,0,1,0,0,12.55,0,1,0,0,0,0,0,75,1,0,0,0,1,0,0,0,1,0,0,0,1.29057,3650,1,19.73
'Autonomous University of Puebla',1,0,0,0,0,0,0,0,0,0,0,0,0,0,0,0,1,0,0,12,1,1,0,0,0,1,1,1,0,0,0,0,0,0,0,0,0,0,0,0,0,0,1,0,1,1,1,21,0,1,1,0,0,0,0,75,1,0,1,0,1,1,10.3,0,1,0,0,0,-1.17033,3650,1,19.05
'University of Science and Technology of China',1,1,20,1,0,0,0,0,0,0,0,0,0,0,0,0,0,0,0,0,0,0,0,0,0,1,0,0,0,0,0,0,0,0,0,0,0,0,0,0,0,0,1,0,0,0,0,18.8,0,0,1,0,0,0,0,75,1,0,1,0,1,0,0,0,0,0,0,0,0.535066,3650,1,18.67
'Hokkaido University',1,0,0,0,0,0,0,0,0,0,1,0,0,0,1,0,0,0,0,1,1,0,1,0,0,1,0,1,0,0,0,0,0,0,0,0,0,0,0,0,0,0,0,0,1,1,0,12.63,0,1,0,0,0,0,0,100,1,0,0,1,1,0,75.3,0,1,0,0,0,-0.459832,3650,1,17.72
'Federal University of Alfenas',0,1,7,0,0,0,0,0,0,0,0,0,0,0,0,0,0,0,0,0,0,0,0,0,0,1,0,0,0,0,0,0,0,0,0,0,0,0,0,0,0,0,0,0,0,0,0,15.91,0,1,0,0,0,0,0,90,1,0,1,0,1,1,0,0,0,0,0,0,0.890447,3650,1,17.65
'Federal University of Ceara',1,0,0,1,0,0,0,0,0,0,0,0,0,0,0,0,1,0,0,0,0,0,0,0,1,1,0,0,0,0,0,0,0,0,0,0,0,0,0,0,0,0,0,0,1,1,0,2.02,0,1,0,1,0,0,0,75,1,0,1,1,1,1,95.2,0,1,0,0,0,0.262566,3650,1,17.56
'University of Zagreb',1,0,0,1,0,0,0,0,0,0,0,1,3,0,0,1,0,0,0,0,0,0,0,0,0,1,0,0,0,0,0,1,0,0,0,0,1,1,0,0,0,0,0,0,0,1,0,1.48,0,1,0,0,0,0,0,75,1,4,1,1,1,0,0,0,0,0,0,1.60944,1.96827,3650,1,17.26
'Vietnam National University Ho Chi Minh City',1,0,0,0,0,0,1,1,0,0,0,1,4,0,1,0,0,0,0,0,0,0,1,0,0,1,0,0,0,0,0,0,0,0,0,0,0,0,0,0,0,0,0,0,0,1,0,10.05,0,0,0,0,0,0,0,75,1,0,1,0,1,1,39.7,0,0,0,0,0,0.0891877,1,0,17.13
'Autonomous University of Yucatan',1,0,0,0,0,0,0,0,0,0,0,0,0,0,0,0,1,0,0,0,1,1,0,0,1,1,1,0,0,0,0,0,0,0,0,0,0,0,0,0,0,0,0,0,1,1,1,21,0,1,0,0,0,0,0,75,1,0,1,1,0,1,33.3,0,1,0,0,0,-0.279905,3650,1,16.7
'Xi\'an Jiaotong University',1,0,0,1,0,0,0,0,0,0,0,0,0,0,1,0,0,0,0,0,0,0,0,0,0,1,0,1,0,0,0,0,0,0,0,0,0,0,0,0,0,0,0,0,0,0,0,21,0,0,0,0,0,0,0,0,1,0,1,0,0,0,0,0,0,0,0,0,-0.985174,20,0,16.49
'Autonomous Metropolitan University',1,0,0,0,0,0,0,0,0,0,0,0,0,0,0,0,0,0,0,0,0,0,0,0,0,1,0,1,0,0,0,0,0,0,0,0,0,0,0,0,0,0,0,0,0,0,0,21,0,0,0,0,0,0,0,75,1,0,1,0,1,1,84.6,0,1,0,0,0,-1.2023,3650,1,14.21
'Visva-Bharati University',1,0,0,0,0,0,0,0,0,0,0,0,0,0,0,0,0,1,0,0,0,0,0,0,0,0,0,1,0,0,0,0,0,0,0,0,0,0,0,0,0,0,0,0,0,0,0,17.05,0,0,0,0,0,0,0,0,1,0,1,0,1,1,0,0,0,0,0,0,-1.2872,3650,1,13.63
'Harbin Institute of Technology',1,0,0,0,0,0,0,0,0,0,0,1,3,0,0,0,0,0,0,0,1,0,0,0,1,1,0,0,0,0,0,0,0,0,0,0,0,0,0,0,0,0,0,0,1,0,0,9.01,0,1,0,0,0,0,0,75,1,0,0,1,1,0,67.7,0,1,0,0,0,1.70996,3650,1,12.37
'Donghua University',1,0,0,1,0,0,0,0,0,0,0,1,5,0,0,0,0,0,0,0,1,0,0,0,0,1,0,0,0,0,0,0,0,0,0,0,0,0,0,0,0,0,0,0,1,1,0,12.63,0,1,0,0,0,0,0,20,1,0,1,0,1,0,25,0,0,0,0,0,-0.100842,3650,1,12.36
'Chonnam National University',1,0,0,0,0,0,0,0,0,0,0,0,0,0,0,0,0,0,0,0,0,0,0,0,0,0,0,0,0,0,0,0,0,0,0,0,0,0,0,0,0,0,0,0,1,0,0,21,0,0,0,0,0,0,0,75,1,0,0,0,1,1,0,0,0,0,0,0,0.235673,3650,1,9.88
'Beijing Normal University',1,0,0,0,0,0,0,0,0,0,0,1,8,0,0,0,0,0,0,0,0,0,0,0,0,1,0,0,0,0,0,0,0,0,0,0,0,0,0,0,0,0,1,0,1,1,0,12.82,0,1,1,0,0,0,0,75,1,1,0,0,1,0,0,0,0,0,0,0.693147,0.356072,3650,1,9.61
'State University of Feira de Santana',1,0,0,0,0,0,0,0,0,0,0,0,0,0,0,0,0,0,0,0,0,0,0,0,0,0,0,0,0,0,0,0,0,0,0,0,0,0,0,0,0,0,0,0,0,0,0,21,0,0,0,0,0,0,0,0,1,1,0,0,1,1,100,0,0,0,0,0.693147,0.171406,3650,1,8.76
'University of Valencia',1,0,0,0,0,0,0,0,0,0,0,0,0,0,0,0,0,0,0,0,0,0,0,0,0,0,0,0,0,0,0,0,0,0,0,0,0,0,0,0,0,0,0,0,1,0,0,21,0,0,0,0,0,0,0,0,1,0,0,0,0,0,25,0,0,0,0,0,0.207542,3650,1,7.65
'Inha University',0,0,0,0,0,0,0,0,0,0,0,0,0,0,0,0,0,0,0,0,0,0,0,0,0,0,0,0,0,0,0,0,0,0,0,0,0,0,0,0,0,0,0,0,0,0,0,1,1,0,0,0,0,0,0,55,1,0,0,1,0,1,0,1,0,0,0,0,-0.419097,3650,1,7.59
